 $RISM
CLOSURE="KH",
ITRMAX=300,
CONV=1.d-5,
CHARGEUP="off",
IGUESS=0,
iolist="gqu"
grid="user"
outtype="bin"
 $END
 $chargeupopt chgstep=0.2 $end
 $MDIIS
NSUB=10,DUMPMAX=0.3d0,DUMPMIN=0.001d0
 $END
 $grid3d
ngrid3d=64 rdelta3d=0.5
 $end
 $rismsolution
solute="udata"
solvent="h2o_vv.xvk"
esptype="cube"
 $end
 $UDATA
4   water-ion
O        3.1500  636.0000   -0.910456       0.0000     0.0000     0.0000
H        0.4000  192.5000    0.455231       0.0000     0.7567     0.5859
H        0.4000  192.5000    0.455225       0.0000    -0.7567     0.5859
Na       4.0000  500.0000    1.000000       0.0000     0.0000    -4.0000
 $END
 $RISMICALQM
$RISMICALQM
 qm         = "pyscf"   
 xc         = "b3lyp5"   
 basis      = "6-31g(d)"
 charge     = 0         
 spin       = 0         
 scfconv    = 1e-5      
 mix_method = "picard"  
 mix_alpha  = 1.0       
 qvcutoff   = 1e-12     
 qvcore     = 0.5       
 qmpart     = 1,-3
$END
