 mgu   0  20220301
  KH
 h2o_vv.xvk
  0.1000E-05      3000
  2   0.600   0.200
  128.0000  128.0000  128.0000
       256       256       256
      9218
      3.25000000    711.28000000      0.29430000      4.87400000     31.13100000     -9.90700000
      1.06910000     65.68880000      0.16420000      4.12000000     30.46500000     -9.81600000
      1.06910000     65.68880000      0.16420000      4.81900000     31.56200000    -10.81900000
      1.06910000     65.68880000      0.16420000      4.90100000     31.70600000     -9.07700000
      3.39970000    457.72960000     -0.01000000      6.16300000     30.37500000     -9.90500000
      1.96000000     65.68880000      0.08950000      6.68400000     30.57900000    -10.84000000
      1.96000000     65.68880000      0.08950000      6.76800000     30.72600000     -9.06900000
      3.39970000    359.82400000      0.61630000      5.95500000     28.86800000     -9.77000000
      2.95990000    878.64000000     -0.57220000      5.16900000     28.41400000     -8.93200000
      3.25000000    711.28000000     -0.25480000      6.62500000     28.06200000    -10.61800000
      3.39970000    457.72960000      0.01920000      7.77300000     28.46900000    -11.44700000
      2.47140000     65.68880000      0.03910000      8.55800000     28.84100000    -10.78800000
      2.47140000     65.68880000      0.03910000      7.44900000     29.26800000    -12.11400000
      3.39970000    457.72960000      0.01890000      8.18800000     27.22300000    -12.19900000
      2.64950000     65.68880000      0.02130000      9.14800000     26.89300000    -11.80100000
      2.64950000     65.68880000      0.02130000      8.30200000     27.48500000    -13.25100000
      3.39970000    457.72960000     -0.00700000      7.12100000     26.16400000    -12.01900000
      2.64950000     65.68880000      0.02530000      7.37000000     25.10300000    -11.99200000
      2.64950000     65.68880000      0.02530000      6.50100000     26.36900000    -12.89200000
      3.39970000    457.72960000     -0.02660000      6.35200000     26.56600000    -10.70900000
      2.47140000     65.68880000      0.06410000      5.32400000     26.52600000    -11.07100000
      3.39970000    359.82400000      0.58960000      6.50600000     25.62100000     -9.47200000
      2.95990000    878.64000000     -0.57480000      5.57700000     24.81700000     -9.20900000
      3.25000000    711.28000000     -0.41570000      7.57100000     25.66600000     -8.67700000
      1.06910000     65.68880000      0.27190000      8.34500000     26.28200000     -8.88000000
      3.39970000    457.72960000     -0.02490000      7.72800000     24.66700000     -7.56400000
      2.47140000     65.68880000      0.08430000      8.77700000     24.66000000     -7.26900000
      3.39970000    457.72960000      0.21170000      6.86200000     24.95800000     -6.30900000
      2.47140000     65.68880000      0.03520000      5.90200000     24.45500000     -6.42400000
      2.47140000     65.68880000      0.03520000      7.37600000     24.56300000     -5.43300000
      3.06650000    880.31360000     -0.65460000      6.65000000     26.34100000     -6.14500000
      1.24730000     41.84000000      0.42750000      6.11300000     26.49200000     -5.36400000
      3.39970000    359.82400000      0.59730000      7.55500000     23.18800000     -7.95400000
      2.95990000    878.64000000     -0.56790000      6.48600000     22.54600000     -7.67400000
      3.25000000    711.28000000     -0.25480000      8.60400000     22.61900000     -8.56500000
      3.39970000    457.72960000      0.01920000      9.87100000     23.28400000     -8.87400000
      2.47140000     65.68880000      0.03910000     10.26600000     23.73400000     -7.96300000
      2.47140000     65.68880000      0.03910000      9.69100000     24.06300000     -9.61500000
      3.39970000    457.72960000      0.01890000     10.74300000     22.18900000     -9.39800000
      2.64950000     65.68880000      0.02130000     11.61000000     22.12600000     -8.74100000
      2.64950000     65.68880000      0.02130000     11.06500000     22.48400000    -10.39700000
      3.39970000    457.72960000     -0.00700000     10.00400000     20.91200000     -9.43800000
      2.64950000     65.68880000      0.02530000     10.60000000     20.23400000     -8.82800000
      2.64950000     65.68880000      0.02530000      9.85600000     20.47600000    -10.42600000
      3.39970000    457.72960000     -0.02660000      8.64500000     21.16100000     -8.76600000
      2.47140000     65.68880000      0.06410000      7.82700000     20.83500000     -9.40800000
      3.39970000    359.82400000      0.58960000      8.49500000     20.51900000     -7.38500000
      2.95990000    878.64000000     -0.57480000      9.08100000     21.01300000     -6.40800000
      3.25000000    711.28000000     -0.41570000      7.67700000     19.48400000     -7.27000000
      1.06910000     65.68880000      0.27190000      7.06400000     19.21400000     -8.02600000
      3.39970000    457.72960000      0.01430000      7.56400000     18.78400000     -6.01400000
      2.47140000     65.68880000      0.10480000      7.76900000     19.47300000     -5.19500000
      3.39970000    457.72960000     -0.20410000      6.17500000     18.21300000     -5.82900000
      2.64950000     65.68880000      0.07970000      5.43100000     19.00100000     -5.94500000
      2.64950000     65.68880000      0.07970000      6.02400000     17.45500000     -6.59700000
      3.39970000    359.82400000      0.71300000      5.99200000     17.57300000     -4.47900000
      2.95990000    878.64000000     -0.59310000      6.94300000     17.34300000     -3.73400000
      3.25000000    711.28000000     -0.91910000      4.76900000     17.31200000     -4.15200000
      1.06910000     65.68880000      0.41960000      4.56900000     16.88200000     -3.26000000
      1.06910000     65.68880000      0.41960000      4.01900000     17.53900000     -4.79000000
      3.39970000    359.82400000      0.59730000      8.66100000     17.72700000     -5.95200000
      2.95990000    878.64000000     -0.56790000      8.46900000     16.57900000     -6.39400000
      3.25000000    711.28000000     -0.41570000      9.85900000     18.14500000     -5.50400000
      1.06910000     65.68880000      0.27190000     10.03200000     19.10600000     -5.24600000
      3.39970000    457.72960000     -0.02750000     10.98400000     17.19000000     -5.44000000
      2.47140000     65.68880000      0.11230000     11.08000000     16.63400000     -6.37300000
      3.39970000    457.72960000     -0.00500000     12.29600000     18.00800000     -5.20900000
      2.64950000     65.68880000      0.03390000     12.28200000     18.65400000     -4.33100000
      2.64950000     65.68880000      0.03390000     13.08100000     17.26000000     -5.09700000
      3.39970000    359.82400000     -0.14150000     12.68400000     18.86300000     -6.35900000
      3.39970000    359.82400000     -0.16380000     12.77900000     20.23500000     -6.39300000
      2.51060000     62.76000000      0.20620000     12.49000000     20.77600000     -5.49200000
      3.25000000    711.28000000     -0.34180000     13.24900000     20.64700000     -7.63900000
      1.06910000     65.68880000      0.34120000     13.46200000     21.60000000     -7.89500000
      3.39970000    359.82400000      0.13800000     13.44500000     19.55000000     -8.43000000
      3.39970000    359.82400000     -0.26010000     13.90600000     19.46100000     -9.74200000
      2.59960000     62.76000000      0.15720000     14.12300000     20.39400000    -10.26200000
      3.39970000    359.82400000     -0.11340000     14.06200000     18.20200000    -10.30800000
      2.59960000     62.76000000      0.14170000     14.45600000     18.09600000    -11.31900000
      3.39970000    359.82400000     -0.19720000     13.71400000     17.04500000     -9.58700000
      2.59960000     62.76000000      0.14470000     13.75700000     16.05600000    -10.04200000
      3.39970000    359.82400000     -0.23870000     13.30500000     17.13600000     -8.27000000
      2.59960000     62.76000000      0.17000000     13.03200000     16.20400000     -7.77500000
      3.39970000    359.82400000      0.12430000     13.16200000     18.41200000     -7.65500000
      3.39970000    359.82400000      0.59730000     10.79000000     16.13700000     -4.34300000
      2.95990000    878.64000000     -0.56790000     11.39000000     15.09100000     -4.41400000
      3.25000000    711.28000000     -0.51630000      9.92400000     16.44800000     -3.34400000
      1.06910000     65.68880000      0.29360000      9.50500000     17.36000000     -3.22700000
      3.39970000    457.72960000      0.03810000      9.63500000     15.41300000     -2.33700000
      2.47140000     65.68880000      0.08800000     10.56000000     15.00500000     -1.93000000
      3.39970000    457.72960000     -0.03030000      8.85900000     16.02200000     -1.23000000
      2.64950000     65.68880000     -0.01220000      7.98700000     16.55500000     -1.60800000
      2.64950000     65.68880000     -0.01220000      8.53400000     15.21500000     -0.57300000
      3.39970000    359.82400000      0.79940000      9.76100000     17.00300000     -0.43700000
      2.95990000    878.64000000     -0.80140000     10.84800000     16.60800000     -0.01400000
      2.95990000    878.64000000     -0.80140000      9.40200000     18.17600000     -0.27300000
      3.39970000    359.82400000      0.53660000      8.88800000     14.25700000     -2.99900000
      2.95990000    878.64000000     -0.58190000      9.17200000     13.10200000     -2.72100000
      3.25000000    711.28000000     -0.41570000      7.95400000     14.58900000     -3.87100000
      1.06910000     65.68880000      0.27190000      7.64600000     15.54900000     -3.93700000
      3.39970000    457.72960000      0.03370000      7.25000000     13.59100000     -4.63700000
      2.47140000     65.68880000      0.08230000      6.86200000     12.90400000     -3.88500000
      3.39970000    457.72960000     -0.18250000      6.10800000     14.15500000     -5.39800000
      2.64950000     65.68880000      0.06030000      6.48100000     14.83800000     -6.16100000
      2.64950000     65.68880000      0.06030000      5.55400000     13.34700000     -5.87500000
      2.64950000     65.68880000      0.06030000      5.44900000     14.69500000     -4.71800000
      3.39970000    359.82400000      0.59730000      8.19800000     12.76300000     -5.57000000
      2.95990000    878.64000000     -0.56790000      8.00700000     11.52100000     -5.68100000
      3.25000000    711.28000000     -0.41570000      9.09500000     13.41400000     -6.27900000
      1.06910000     65.68880000      0.27190000      9.07300000     14.42400000     -6.27100000
      3.39970000    457.72960000     -0.08750000     10.07600000     12.75400000     -7.12200000
      2.47140000     65.68880000      0.09690000      9.58700000     12.08200000     -7.82700000
      3.39970000    457.72960000      0.29850000     10.97100000     13.75000000     -7.92200000
      2.64950000     65.68880000     -0.02970000     11.46800000     14.41400000     -7.21500000
      3.39970000    457.72960000     -0.31920000     11.99400000     13.03200000     -8.73100000
      2.64950000     65.68880000      0.07910000     11.49800000     12.36800000     -9.43900000
      2.64950000     65.68880000      0.07910000     12.60000000     13.75600000     -9.27600000
      2.64950000     65.68880000      0.07910000     12.63400000     12.44600000     -8.07100000
      3.39970000    457.72960000     -0.31920000     10.16200000     14.65800000     -8.83800000
      2.64950000     65.68880000      0.07910000      9.46000000     15.24300000     -8.24300000
      2.64950000     65.68880000      0.07910000     10.83500000     15.33000000     -9.37000000
      2.64950000     65.68880000      0.07910000      9.61100000     14.05200000     -9.55700000
      3.39970000    359.82400000      0.59730000     10.94800000     11.84300000     -6.25100000
      2.95990000    878.64000000     -0.56790000     11.28100000     10.69700000     -6.62800000
      3.25000000    711.28000000     -0.41570000     11.36100000     12.34400000     -5.09800000
      1.06910000     65.68880000      0.27190000     11.24600000     13.31900000     -4.86000000
      3.39970000    457.72960000      0.03370000     12.18800000     11.47200000     -4.17600000
      2.47140000     65.68880000      0.08230000     13.00300000     11.09700000     -4.79500000
      3.39970000    457.72960000     -0.18250000     12.77900000     12.31600000     -3.04900000
      2.64950000     65.68880000      0.06030000     11.97500000     12.69100000     -2.41500000
      2.64950000     65.68880000      0.06030000     13.45600000     11.70400000     -2.45300000
      2.64950000     65.68880000      0.06030000     13.32800000     13.15600000     -3.47300000
      3.39970000    359.82400000      0.59730000     11.45100000     10.26200000     -3.67500000
      2.95990000    878.64000000     -0.56790000     12.05000000      9.23900000     -3.44100000
      3.25000000    711.28000000     -0.41570000     10.11100000     10.36100000     -3.47300000
      1.06910000     65.68880000      0.27190000      9.64400000     11.25000000     -3.58000000
      3.39970000    457.72960000     -0.00310000      9.35800000      9.26400000     -3.03200000
      2.47140000     65.68880000      0.08500000      9.79200000      8.85100000     -2.12200000
      3.39970000    457.72960000     -0.00360000      7.89200000      9.71900000     -2.72500000
      2.64950000     65.68880000      0.01710000      7.97500000     10.39900000     -1.87700000
      2.64950000     65.68880000      0.01710000      7.57400000     10.27500000     -3.60700000
      3.39970000    457.72960000     -0.06450000      6.84600000      8.61600000     -2.40400000
      2.64950000     65.68880000      0.03520000      5.92300000      9.12300000     -2.12400000
      2.64950000     65.68880000      0.03520000      6.66900000      8.00100000     -3.28600000
      3.39970000    359.82400000      0.69510000      7.26600000      7.72000000     -1.26900000
      2.95990000    878.64000000     -0.60860000      7.85100000      8.18300000     -0.30100000
      3.25000000    711.28000000     -0.94070000      7.00200000      6.44000000     -1.40800000
      1.06910000     65.68880000      0.42510000      7.26100000      5.79200000     -0.67800000
      1.06910000     65.68880000      0.42510000      6.54100000      6.11000000     -2.24400000
      3.39970000    359.82400000      0.59730000      9.42600000      8.15100000     -4.08700000
      2.95990000    878.64000000     -0.56790000      9.63400000      6.98500000     -3.78000000
      3.25000000    711.28000000     -0.41570000      9.24700000      8.55800000     -5.32300000
      1.06910000     65.68880000      0.27190000      8.98900000      9.51400000     -5.52000000
      3.39970000    457.72960000      0.02130000      9.30500000      7.61400000     -6.43400000
      2.47140000     65.68880000      0.11240000      8.68900000      6.74400000     -6.20600000
      3.39970000    457.72960000     -0.12310000      8.80300000      8.23600000     -7.68900000
      2.47140000     65.68880000      0.11120000      9.41800000      9.10200000     -7.93300000
      2.47140000     65.68880000      0.11120000      8.86100000      7.51000000     -8.50000000
      3.53240000   1181.56160000     -0.31190000      7.10200000      8.82200000     -7.66500000
      1.08900000     51.88160000      0.19330000      7.09200000      9.27100000     -8.91700000
      3.39970000    359.82400000      0.59730000     10.69600000      7.02900000     -6.63700000
      2.95990000    878.64000000     -0.56790000     10.82500000      5.83200000     -6.89900000
      3.25000000    711.28000000     -0.51630000     11.72000000      7.84700000     -6.49300000
      1.06910000     65.68880000      0.29360000     11.55800000      8.80900000     -6.23100000
      3.39970000    457.72960000      0.03970000     13.10000000      7.41900000     -6.75100000
      2.47140000     65.68880000      0.11050000     13.10700000      6.78000000     -7.63400000
      3.39970000    457.72960000      0.05600000     14.06000000      8.60300000     -6.99100000
      2.64950000     65.68880000     -0.01730000     13.84400000      9.29800000     -6.17900000
      2.64950000     65.68880000     -0.01730000     15.05500000      8.18000000     -6.85200000
      3.39970000    457.72960000      0.01360000     14.00400000      9.35600000     -8.34300000
      2.64950000     65.68880000     -0.04250000     13.00100000      9.75700000     -8.48800000
      2.64950000     65.68880000     -0.04250000     14.70800000     10.17800000     -8.21300000
      3.39970000    359.82400000      0.80540000     14.39300000      8.55300000     -9.53200000
      2.95990000    878.64000000     -0.81880000     14.95200000      7.43600000     -9.40800000
      2.95990000    878.64000000     -0.81880000     14.08800000      8.99200000    -10.65800000
      3.39970000    359.82400000      0.53660000     13.73700000      6.56900000     -5.65100000
      2.95990000    878.64000000     -0.58190000     14.41500000      5.57700000     -5.98100000
      3.25000000    711.28000000     -0.41570000     13.56200000      6.94600000     -4.41400000
      1.06910000     65.68880000      0.27190000     12.92800000      7.71500000     -4.25000000
      3.39970000    457.72960000     -0.02490000     14.16300000      6.33900000     -3.31400000
      2.47140000     65.68880000      0.08430000     14.73300000      5.46000000     -3.61500000
      3.39970000    457.72960000      0.21170000     15.14700000      7.37800000     -2.66600000
      2.47140000     65.68880000      0.03520000     15.69000000      6.85600000     -1.87800000
      2.47140000     65.68880000      0.03520000     15.84500000      7.68600000     -3.44500000
      3.06650000    880.31360000     -0.65460000     14.51500000      8.51400000     -2.12600000
      1.24730000     41.84000000      0.42750000     15.17600000      9.10000000     -1.75000000
      3.39970000    359.82400000      0.59730000     13.23700000      5.88800000     -2.15900000
      2.95990000    878.64000000     -0.56790000     13.69800000      5.51100000     -1.08400000
      3.25000000    711.28000000     -0.41570000     11.92000000      6.04000000     -2.28600000
      1.06910000     65.68880000      0.27190000     11.51300000      6.27900000     -3.17900000
      3.39970000    457.72960000     -0.02520000     11.03400000      5.86700000     -1.15100000
      2.47140000     65.68880000      0.06980000     10.00900000      5.83700000     -1.52100000
      2.47140000     65.68880000      0.06980000     11.27500000      4.91700000     -0.67300000
      3.39970000    359.82400000      0.59730000     11.15600000      6.97200000     -0.13400000
      2.95990000    878.64000000     -0.56790000     10.81500000      6.76000000      1.04900000
      3.25000000    711.28000000     -0.41570000     11.62600000      8.17200000     -0.53200000
      1.06910000     65.68880000      0.27190000     11.86400000      8.28000000     -1.50800000
      3.39970000    457.72960000     -0.02520000     11.80700000      9.29300000      0.33800000
      2.47140000     65.68880000      0.06980000     11.86500000     10.17000000     -0.30700000
      2.47140000     65.68880000      0.06980000     10.90600000      9.35100000      0.94900000
      3.39970000    359.82400000      0.59730000     13.05000000      9.26800000      1.27100000
      2.95990000    878.64000000     -0.56790000     12.97300000      9.80500000      2.35700000
      3.25000000    711.28000000     -0.41570000     14.04600000      8.49200000      0.90000000
      1.06910000     65.68880000      0.27190000     14.02300000      7.97900000      0.03000000
      3.39970000    457.72960000      0.01430000     15.20900000      8.33300000      1.76700000
      2.47140000     65.68880000      0.10480000     14.95800000      8.63600000      2.78400000
      3.39970000    457.72960000     -0.20410000     15.63800000      6.93400000      1.78800000
      2.64950000     65.68880000      0.07970000     14.88500000      6.24600000      2.17100000
      2.64950000     65.68880000      0.07970000     15.86400000      6.68500000      0.75100000
      3.39970000    359.82400000      0.71300000     16.90900000      6.77400000      2.61500000
      2.95990000    878.64000000     -0.59310000     17.32900000      7.73700000      3.31900000
      3.25000000    711.28000000     -0.91910000     17.44300000      5.62000000      2.63700000
      1.06910000     65.68880000      0.41960000     18.28600000      5.46700000      3.17200000
      1.06910000     65.68880000      0.41960000     17.02100000      4.86200000      2.12000000
      3.39970000    359.82400000      0.59730000     16.31000000      9.24600000      1.21600000
      2.95990000    878.64000000     -0.56790000     16.97100000      8.91300000      0.21800000
      3.25000000    711.28000000     -0.41570000     16.42800000     10.41200000      1.77800000
      1.06910000     65.68880000      0.27190000     15.82900000     10.64000000      2.55800000
      3.39970000    457.72960000     -0.02750000     17.29400000     11.43500000      1.26300000
      2.47140000     65.68880000      0.11230000     17.12700000     11.51100000      0.18900000
      3.39970000    457.72960000     -0.00500000     17.06300000     12.84900000      1.90800000
      2.64950000     65.68880000      0.03390000     16.86500000     12.50300000      2.92200000
      2.64950000     65.68880000      0.03390000     17.82200000     13.63100000      1.93300000
      3.39970000    359.82400000     -0.14150000     15.77300000     13.50700000      1.41000000
      3.39970000    359.82400000     -0.16380000     14.56800000     13.36500000      1.94500000
      2.51060000     62.76000000      0.20620000     14.49300000     12.76300000      2.85100000
      3.25000000    711.28000000     -0.34180000     13.63400000     14.05200000      1.18700000
      1.06910000     65.68880000      0.34120000     12.65300000     14.16800000      1.39800000
      3.39970000    359.82400000      0.13800000     14.25400000     14.48500000      0.06200000
      3.39970000    359.82400000     -0.26010000     13.74200000     15.12500000     -1.02500000
      2.59960000     62.76000000      0.15720000     12.67300000     15.33900000     -1.02700000
      3.39970000    359.82400000     -0.11340000     14.58300000     15.45700000     -2.03500000
      2.59960000     62.76000000      0.14170000     14.20700000     15.98700000     -2.91000000
      3.39970000    359.82400000     -0.19720000     15.94600000     15.12600000     -1.97300000
      2.59960000     62.76000000      0.14470000     16.64300000     15.41800000     -2.75900000
      3.39970000    359.82400000     -0.23870000     16.44000000     14.41500000     -0.90300000
      2.59960000     62.76000000      0.17000000     17.51000000     14.21200000     -0.87100000
      3.39970000    359.82400000      0.12430000     15.57900000     14.09700000      0.13800000
      3.39970000    359.82400000      0.59730000     18.77900000     10.96800000      1.40900000
      2.95990000    878.64000000     -0.56790000     19.67700000     11.57000000      0.85100000
      3.25000000    711.28000000     -0.41570000     19.01800000     10.02700000      2.29100000
      1.06910000     65.68880000      0.27190000     18.24200000      9.70200000      2.85000000
      3.39970000    457.72960000      0.03370000     20.35900000      9.45400000      2.55100000
      2.47140000     65.68880000      0.08230000     21.10500000     10.13700000      2.14500000
      3.39970000    457.72960000     -0.18250000     20.60600000      9.29600000      4.05200000
      2.64950000     65.68880000      0.06030000     19.87200000      8.60700000      4.47100000
      2.64950000     65.68880000      0.06030000     21.60900000      8.90200000      4.21600000
      2.64950000     65.68880000      0.06030000     20.51300000     10.26600000      4.54000000
      3.39970000    359.82400000      0.59730000     20.53800000      8.09300000      1.85300000
      2.95990000    878.64000000     -0.56790000     21.50700000      7.39800000      2.15000000
      3.25000000    711.28000000     -0.41570000     19.73200000      7.76700000      0.82500000
      1.06910000     65.68880000      0.27190000     18.99500000      8.38300000      0.51300000
      3.39970000    457.72960000      0.03370000     19.86200000      6.50800000      0.19900000
      2.47140000     65.68880000      0.08230000     19.67600000      5.75800000      0.96800000
      3.39970000    457.72960000     -0.18250000     18.83400000      6.34300000     -0.89500000
      2.64950000     65.68880000      0.06030000     19.01300000      7.08100000     -1.67700000
      2.64950000     65.68880000      0.06030000     18.91000000      5.34100000     -1.31800000
      2.64950000     65.68880000      0.06030000     17.83600000      6.48700000     -0.48100000
      3.39970000    359.82400000      0.59730000     21.22300000      6.26200000     -0.36800000
      2.95990000    878.64000000     -0.56790000     21.77500000      7.06400000     -1.16200000
      3.25000000    711.28000000     -0.41570000     21.72700000      5.08200000     -0.08200000
      1.06910000     65.68880000      0.27190000     21.24600000      4.44500000      0.53700000
      3.39970000    457.72960000      0.01430000     23.04000000      4.66600000     -0.63900000
      2.47140000     65.68880000      0.10480000     23.10200000      4.97700000     -1.68200000
      3.39970000    457.72960000     -0.20410000     24.21400000      5.30100000      0.13600000
      2.64950000     65.68880000      0.07970000     24.09700000      6.38500000      0.14200000
      2.64950000     65.68880000      0.07970000     24.20800000      4.92900000      1.16100000
      3.39970000    359.82400000      0.71300000     25.58600000      4.95300000     -0.51100000
      2.95990000    878.64000000     -0.59310000     25.69100000      4.28500000     -1.56100000
      3.25000000    711.28000000     -0.91910000     26.65300000      5.41400000      0.12300000
      1.06910000     65.68880000      0.41960000     27.57500000      5.22400000     -0.24300000
      1.06910000     65.68880000      0.41960000     26.54000000      5.95300000      0.97000000
      3.39970000    359.82400000      0.59730000     23.12900000      3.19300000     -0.57700000
      2.95990000    878.64000000     -0.56790000     23.77200000      2.60600000      0.29300000
      3.25000000    711.28000000     -0.41570000     22.46500000      2.53100000     -1.51400000
      1.06910000     65.68880000      0.27190000     22.05900000      3.01300000     -2.30300000
      3.39970000    457.72960000     -0.03890000     22.23300000      1.08700000     -1.38600000
      2.47140000     65.68880000      0.10070000     22.34500000      0.74700000     -0.35700000
      3.39970000    457.72960000      0.36540000     20.75400000      0.77100000     -1.86600000
      2.47140000     65.68880000      0.00430000     20.59800000     -0.30700000     -1.81900000
      3.39970000    457.72960000     -0.24380000     19.79800000      1.42100000     -1.05300000
      2.64950000     65.68880000      0.06420000     19.95300000      2.49900000     -1.09900000
      2.64950000     65.68880000      0.06420000     18.79600000      1.18300000     -1.40900000
      2.64950000     65.68880000      0.06420000     19.90700000      1.08300000     -0.02200000
      3.06650000    880.31360000     -0.67610000     20.63100000      1.20900000     -3.24000000
      1.24730000     41.84000000      0.41020000     19.74200000      1.02800000     -3.55500000
      3.39970000    359.82400000      0.59730000     23.25200000      0.26800000     -2.15600000
      2.95990000    878.64000000     -0.56790000     23.22500000     -0.95400000     -2.10000000
      3.25000000    711.28000000     -0.41570000     24.10200000      0.90000000     -2.95200000
      1.06910000     65.68880000      0.27190000     24.08200000      1.91000000     -2.96600000
      3.39970000    457.72960000     -0.02520000     25.05500000      0.22200000     -3.80000000
      2.47140000     65.68880000      0.06980000     25.95000000      0.84300000     -3.83500000
      2.47140000     65.68880000      0.06980000     25.29100000     -0.72700000     -3.31900000
      3.39970000    359.82400000      0.59730000     24.58800000     -0.04400000     -5.20700000
      2.95990000    878.64000000     -0.56790000     25.23200000     -0.78600000     -5.95300000
      3.25000000    711.28000000     -0.41570000     23.57300000      0.64500000     -5.63600000
      1.06910000     65.68880000      0.27190000     23.09300000      1.27400000     -5.00800000
      3.39970000    457.72960000      0.01430000     23.07600000      0.52400000     -7.02200000
      2.47140000     65.68880000      0.10480000     23.33000000     -0.45700000     -7.42400000
      3.39970000    457.72960000     -0.20410000     21.58100000      0.68400000     -7.05300000
      2.64950000     65.68880000      0.07970000     21.24200000      0.58200000     -8.08400000
      2.64950000     65.68880000      0.07970000     21.14500000     -0.11100000     -6.44700000
      3.39970000    359.82400000      0.71300000     21.09700000      2.03800000     -6.50900000
      2.95990000    878.64000000     -0.59310000     21.88300000      2.89300000     -6.06500000
      3.25000000    711.28000000     -0.91910000     19.81800000      2.26100000     -6.53800000
      1.06910000     65.68880000      0.41960000     19.45300000      3.13700000     -6.19100000
      1.06910000     65.68880000      0.41960000     19.19400000      1.55800000     -6.90700000
      3.39970000    359.82400000      0.59730000     23.68000000      1.55800000     -7.97100000
      2.95990000    878.64000000     -0.56790000     23.12500000      1.80600000     -9.01600000
      3.25000000    711.28000000     -0.41570000     24.70800000      2.28300000     -7.52100000
      1.06910000     65.68880000      0.27190000     25.06800000      2.17000000     -6.58400000
      3.39970000    457.72960000     -0.02520000     25.34000000      3.26900000     -8.39000000
      2.47140000     65.68880000      0.06980000     26.36900000      3.38900000     -8.05000000
      2.47140000     65.68880000      0.06980000     25.33700000      2.86000000     -9.40000000
      3.39970000    359.82400000      0.59730000     24.66700000      4.61900000     -8.40500000
      2.95990000    878.64000000     -0.56790000     25.15300000      5.51600000     -9.10200000
      3.25000000    711.28000000     -0.34790000     23.61800000      4.79500000     -7.56100000
      1.06910000     65.68880000      0.27470000     23.31100000      3.98700000     -7.03900000
      3.39970000    457.72960000     -0.24000000     22.89800000      6.01400000     -7.40300000
      2.47140000     65.68880000      0.14260000     23.46900000      6.81000000     -7.88000000
      3.39970000    457.72960000     -0.00940000     21.49400000      5.98500000     -8.01400000
      2.64950000     65.68880000      0.03620000     20.87400000      5.34500000     -7.38600000
      2.64950000     65.68880000      0.03620000     21.10400000      7.00300000     -7.99200000
      3.39970000    457.72960000      0.01870000     21.47300000      5.46000000     -9.45600000
      2.64950000     65.68880000      0.01030000     21.97700000      6.16600000    -10.11600000
      2.64950000     65.68880000      0.01030000     21.97500000      4.49400000     -9.50700000
      3.39970000    457.72960000     -0.04790000     20.03400000      5.30300000     -9.89100000
      2.64950000     65.68880000      0.06210000     19.45700000      5.07400000     -8.99500000
      2.64950000     65.68880000      0.06210000     19.71800000      6.26700000    -10.29000000
      3.39970000    457.72960000     -0.01430000     19.80500000      4.24300000    -10.91400000
      1.96000000     65.68880000      0.11350000     19.47000000      4.71900000    -11.83500000
      1.96000000     65.68880000      0.11350000     20.74900000      3.72800000    -11.09400000
      3.25000000    711.28000000     -0.38540000     18.74900000      3.22900000    -10.44900000
      1.06910000     65.68880000      0.34000000     17.87500000      3.70600000    -10.28200000
      1.06910000     65.68880000      0.34000000     18.61900000      2.52700000    -11.16300000
      1.06910000     65.68880000      0.34000000     19.05900000      2.78700000     -9.59500000
      3.39970000    359.82400000      0.73410000     22.75500000      6.42200000     -5.90900000
      2.95990000    878.64000000     -0.58940000     22.96900000      5.61300000     -4.97800000
      3.25000000    711.28000000     -0.41570000     22.57500000      7.69600000     -5.71600000
      1.06910000     65.68880000      0.27190000     22.40100000      8.29800000     -6.50800000
      3.39970000    457.72960000     -0.00140000     22.75500000      8.32600000     -4.37500000
      2.47140000     65.68880000      0.08760000     22.56900000      7.59800000     -3.58500000
      3.39970000    457.72960000     -0.01520000     24.28600000      8.86600000     -4.23500000
      2.64950000     65.68880000      0.02950000     24.44400000      9.73200000     -4.87700000
      2.64950000     65.68880000      0.02950000     24.33900000      9.17400000     -3.19100000
      3.39970000    359.82400000     -0.00110000     25.33100000      7.85700000     -4.50400000
      3.39970000    359.82400000     -0.19060000     25.84600000      7.64200000     -5.81400000
      2.59960000     62.76000000      0.16990000     25.48600000      8.28200000     -6.62000000
      3.39970000    359.82400000     -0.23410000     26.74900000      6.68400000     -6.07100000
      2.59960000     62.76000000      0.16560000     27.08900000      6.51900000     -7.09300000
      3.39970000    359.82400000      0.32260000     27.30600000      5.97800000     -5.04400000
      3.06650000    880.31360000     -0.55790000     28.20700000      5.04000000     -5.39000000
      1.24730000     41.84000000      0.39920000     28.34700000      4.98600000     -6.33800000
      3.39970000    359.82400000     -0.23410000     26.88300000      6.16900000     -3.74200000
      2.59960000     62.76000000      0.16560000     27.28800000      5.56600000     -2.93000000
      3.39970000    359.82400000     -0.19060000     25.93100000      7.14200000     -3.47500000
      2.59960000     62.76000000      0.16990000     25.64300000      7.35500000     -2.44500000
      3.39970000    359.82400000      0.59730000     21.80000000      9.37600000     -4.01600000
      2.95990000    878.64000000     -0.56790000     21.47900000     10.23800000     -4.82300000
      3.25000000    711.28000000     -0.41570000     21.28100000      9.32000000     -2.77900000
      1.06910000     65.68880000      0.27190000     21.51200000      8.51100000     -2.22100000
      3.39970000    457.72960000     -0.02520000     20.43600000     10.31500000     -2.20900000
      2.47140000     65.68880000      0.06980000     20.52200000     10.26500000     -1.12400000
      2.47140000     65.68880000      0.06980000     20.76900000     11.29400000     -2.55400000
      3.39970000    359.82400000      0.59730000     18.98600000     10.12300000     -2.59700000
      2.95990000    878.64000000     -0.56790000     18.63800000      9.11100000     -3.27100000
      3.25000000    711.28000000     -0.41570000     18.18700000     11.09000000     -2.24600000
      1.06910000     65.68880000      0.27190000     18.56600000     11.96000000     -1.89900000
      3.39970000    457.72960000     -0.02520000     16.71400000     10.95300000     -2.34100000
      2.47140000     65.68880000      0.06980000     16.39200000     10.02400000     -1.87100000
      2.47140000     65.68880000      0.06980000     16.22600000     11.79600000     -1.85100000
      3.39970000    359.82400000      0.59730000     16.31600000     10.93200000     -3.78300000
      2.95990000    878.64000000     -0.56790000     15.27000000     10.38700000     -4.12800000
      3.25000000    711.28000000     -0.41570000     17.08300000     11.64300000     -4.61000000
      1.06910000     65.68880000      0.27190000     17.81500000     12.21500000     -4.21300000
      3.39970000    457.72960000     -0.05180000     16.78600000     11.78700000     -6.04500000
      2.47140000     65.68880000      0.09220000     15.78400000     11.40300000     -6.23700000
      3.39970000    457.72960000     -0.11020000     16.84900000     13.24500000     -6.51300000
      2.64950000     65.68880000      0.04570000     17.88900000     13.53700000     -6.36700000
      2.64950000     65.68880000      0.04570000     16.60700000     13.28300000     -7.57500000
      3.39970000    457.72960000      0.35310000     15.92500000     14.22000000     -5.73700000
      2.64950000     65.68880000     -0.03610000     16.02200000     14.04400000     -4.66600000
      3.39970000    457.72960000     -0.41210000     16.33300000     15.65100000     -6.05400000
      2.64950000     65.68880000      0.10000000     16.23600000     15.82800000     -7.12500000
      2.64950000     65.68880000      0.10000000     15.68800000     16.34200000     -5.51200000
      2.64950000     65.68880000      0.10000000     17.36800000     15.80900000     -5.75300000
      3.39970000    457.72960000     -0.41210000     14.44300000     13.99300000     -6.07500000
      2.64950000     65.68880000      0.10000000     14.16200000     12.97300000     -5.81200000
      2.64950000     65.68880000      0.10000000     13.82900000     14.69600000     -5.51100000
      2.64950000     65.68880000      0.10000000     14.28500000     14.14900000     -7.14200000
      3.39970000    359.82400000      0.59730000     17.61600000     10.83500000     -6.93500000
      2.95990000    878.64000000     -0.56790000     17.51500000     10.87200000     -8.16000000
      3.25000000    711.28000000     -0.41570000     18.42600000      9.94500000     -6.29500000
      1.06910000     65.68880000      0.27190000     18.64900000     10.10500000     -5.32300000
      3.39970000    457.72960000     -0.00310000     19.16700000      8.92900000     -7.01000000
      2.47140000     65.68880000      0.08500000     19.93700000      8.48900000     -6.37600000
      3.39970000    457.72960000     -0.00360000     18.16500000      7.80400000     -7.43300000
      2.64950000     65.68880000      0.01710000     17.37500000      8.27100000     -8.02200000
      2.64950000     65.68880000      0.01710000     18.71000000      7.09500000     -8.05500000
      3.39970000    457.72960000     -0.06450000     17.55400000      7.07700000     -6.25900000
      2.64950000     65.68880000      0.03520000     17.40900000      7.96200000     -5.63900000
      2.64950000     65.68880000      0.03520000     16.59100000      6.60000000     -6.44300000
      3.39970000    359.82400000      0.69510000     18.42600000      6.12000000     -5.52500000
      2.95990000    878.64000000     -0.60860000     19.09300000      6.50100000     -4.49600000
      3.25000000    711.28000000     -0.94070000     18.67000000      5.03100000     -6.09900000
      1.06910000     65.68880000      0.42510000     19.25600000      4.34500000     -5.64600000
      1.06910000     65.68880000      0.42510000     18.27900000      4.84600000     -7.01200000
      3.39970000    359.82400000      0.59730000     20.06100000      9.40400000     -8.07100000
      2.95990000    878.64000000     -0.56790000     20.00500000      8.92200000     -9.19000000
      3.25000000    711.28000000     -0.41570000     20.87700000     10.40200000     -7.72800000
      1.06910000     65.68880000      0.27190000     20.86700000     10.75600000     -6.78200000
      3.39970000    457.72960000     -0.00240000     21.83600000     10.97300000     -8.67100000
      2.47140000     65.68880000      0.09780000     21.33100000     11.29400000     -9.58200000
      3.39970000    457.72960000     -0.03430000     22.50500000     12.19200000     -8.02700000
      2.64950000     65.68880000      0.02950000     22.46600000     12.03300000     -6.94900000
      2.64950000     65.68880000      0.02950000     23.54200000     12.32100000     -8.33800000
      3.39970000    359.82400000      0.01180000     21.80700000     13.50300000     -8.29500000
      3.39970000    359.82400000     -0.12560000     22.00100000     14.13600000     -9.50000000
      2.59960000     62.76000000      0.13300000     22.61500000     13.67800000    -10.27600000
      3.39970000    359.82400000     -0.17040000     21.39700000     15.38900000     -9.72700000
      2.59960000     62.76000000      0.14300000     21.57400000     15.93200000    -10.65500000
      3.39970000    359.82400000     -0.10720000     20.56000000     15.93600000     -8.74300000
      2.59960000     62.76000000      0.12970000     20.03800000     16.87400000     -8.93300000
      3.39970000    359.82400000     -0.17040000     20.40000000     15.30000000     -7.55900000
      2.59960000     62.76000000      0.14300000     19.75900000     15.72000000     -6.78300000
      3.39970000    359.82400000     -0.12560000     21.06000000     14.10500000     -7.33900000
      2.59960000     62.76000000      0.13300000     20.98900000     13.61400000     -6.36800000
      3.39970000    359.82400000      0.59730000     22.93300000      9.98100000     -8.98600000
      2.95990000    878.64000000     -0.56790000     23.41800000      9.25700000     -8.04600000
      3.25000000    711.28000000     -0.34790000     23.36000000      9.91500000    -10.25600000
      1.06910000     65.68880000      0.27470000     22.77800000     10.28000000    -10.99700000
      3.39970000    457.72960000     -0.24000000     24.65100000      9.30200000    -10.61900000
      2.47140000     65.68880000      0.14260000     24.80100000      8.39100000    -10.04000000
      3.39970000    457.72960000     -0.00940000     24.68100000      8.94400000    -12.11500000
      2.64950000     65.68880000      0.03620000     24.22200000      9.74400000    -12.69500000
      2.64950000     65.68880000      0.03620000     25.71200000      8.80500000    -12.44100000
      3.39970000    457.72960000      0.01870000     23.90400000      7.65300000    -12.32800000
      2.64950000     65.68880000      0.01030000     24.48200000      6.84800000    -11.87500000
      2.64950000     65.68880000      0.01030000     22.95400000      7.75600000    -11.80400000
      3.39970000    457.72960000     -0.04790000     23.64500000      7.33100000    -13.78400000
      2.64950000     65.68880000      0.06210000     23.18200000      8.19200000    -14.26700000
      2.64950000     65.68880000      0.06210000     24.59000000      7.10400000    -14.27700000
      3.39970000    457.72960000     -0.01430000     22.71300000      6.12500000    -13.89100000
      1.96000000     65.68880000      0.11350000     23.29300000      5.23700000    -13.63900000
      1.96000000     65.68880000      0.11350000     21.91600000      6.25800000    -13.15900000
      3.25000000    711.28000000     -0.38540000     22.12200000      5.96200000    -15.24000000
      1.06910000     65.68880000      0.34000000     22.86000000      5.83800000    -15.91800000
      1.06910000     65.68880000      0.34000000     21.51900000      5.15200000    -15.24800000
      1.06910000     65.68880000      0.34000000     21.58500000      6.78500000    -15.47400000
      3.39970000    359.82400000      0.73410000     25.83300000     10.25600000    -10.31100000
      2.95990000    878.64000000     -0.58940000     25.67300000     11.45800000    -10.35200000
      3.25000000    711.28000000     -0.25480000     27.01100000      9.72300000     -9.95500000
      3.39970000    457.72960000      0.01920000     27.31600000      8.34900000     -9.54700000
      2.47140000     65.68880000      0.03910000     27.48700000      7.74600000    -10.43900000
      2.47140000     65.68880000      0.03910000     26.46600000      7.94800000     -8.99500000
      3.39970000    457.72960000      0.01890000     28.55500000      8.47800000     -8.68600000
      2.64950000     65.68880000      0.02130000     29.19700000      7.60700000     -8.82000000
      2.64950000     65.68880000      0.02130000     28.27400000      8.56400000     -7.63600000
      3.39970000    457.72960000     -0.00700000     29.23300000      9.74500000     -9.17100000
      2.64950000     65.68880000      0.02530000     29.82400000      9.54800000    -10.06500000
      2.64950000     65.68880000      0.02530000     29.86500000     10.20900000     -8.41400000
      3.39970000    457.72960000     -0.02660000     28.06300000     10.67100000     -9.51400000
      2.47140000     65.68880000      0.06410000     27.68000000     11.20000000     -8.64200000
      3.39970000    359.82400000      0.58960000     28.47100000     11.69700000    -10.60200000
      2.95990000    878.64000000     -0.57480000     28.75100000     12.82400000    -10.25500000
      3.25000000    711.28000000     -0.41570000     28.50500000     11.27500000    -11.87500000
      1.06910000     65.68880000      0.27190000     28.25100000     10.32500000    -12.10700000
      3.39970000    457.72960000      0.03370000     29.00600000     12.14000000    -12.94400000
      2.47140000     65.68880000      0.08230000     29.94800000     12.58200000    -12.62000000
      3.39970000    457.72960000     -0.18250000     29.25100000     11.36100000    -14.21800000
      2.64950000     65.68880000      0.06030000     28.31500000     10.92000000    -14.56000000
      2.64950000     65.68880000      0.06030000     29.63800000     12.03100000    -14.98500000
      2.64950000     65.68880000      0.06030000     29.97700000     10.57000000    -14.02700000
      3.39970000    359.82400000      0.59730000     28.02600000     13.30400000    -13.15300000
      2.95990000    878.64000000     -0.56790000     28.45500000     14.43200000    -13.33800000
      3.25000000    711.28000000     -0.41570000     26.71400000     13.06500000    -13.01100000
      1.06910000     65.68880000      0.27190000     26.37400000     12.13200000    -12.82500000
      3.39970000    457.72960000     -0.03890000     25.73800000     14.15500000    -13.09900000
      2.47140000     65.68880000      0.10070000     25.90200000     14.72100000    -14.01600000
      3.39970000    457.72960000      0.36540000     24.28000000     13.59200000    -13.11400000
      2.47140000     65.68880000      0.00430000     24.09100000     13.14600000    -12.13800000
      3.39970000    457.72960000     -0.24380000     23.19100000     14.68700000    -13.41000000
      2.64950000     65.68880000      0.06420000     23.37900000     15.13300000    -14.38700000
      2.64950000     65.68880000      0.06420000     22.20300000     14.22800000    -13.40600000
      2.64950000     65.68880000      0.06420000     23.23500000     15.46100000    -12.64300000
      3.06650000    880.31360000     -0.67610000     24.16400000     12.58800000    -14.12900000
      1.24730000     41.84000000      0.41020000     23.26800000     12.24300000    -14.13700000
      3.39970000    359.82400000      0.59730000     25.83400000     15.11100000    -11.89200000
      2.95990000    878.64000000     -0.56790000     25.78600000     16.33400000    -12.05600000
      3.25000000    711.28000000     -0.41570000     25.97000000     14.55600000    -10.70100000
      1.06910000     65.68880000      0.27190000     26.02800000     13.55000000    -10.63100000
      3.39970000    457.72960000     -0.02750000     26.07000000     15.36100000     -9.44600000
      2.47140000     65.68880000      0.11230000     25.14800000     15.92200000     -9.29700000
      3.39970000    457.72960000     -0.00500000     26.28800000     14.47300000     -8.25600000
      2.64950000     65.68880000      0.03390000     25.31800000     13.97700000     -8.21500000
      2.64950000     65.68880000      0.03390000     27.07500000     13.72500000     -8.35200000
      3.39970000    359.82400000     -0.14150000     26.47800000     15.10800000     -6.98500000
      3.39970000    359.82400000     -0.16380000     27.59600000     15.14200000     -6.28100000
      2.51060000     62.76000000      0.20620000     28.47500000     14.71200000     -6.76100000
      3.25000000    711.28000000     -0.34180000     27.39400000     15.72600000     -5.07400000
      1.06910000     65.68880000      0.34120000     28.11600000     15.97000000     -4.41100000
      3.39970000    359.82400000      0.13800000     26.05400000     16.02800000     -4.94700000
      3.39970000    359.82400000     -0.26010000     25.39500000     16.66600000     -3.94700000
      2.59960000     62.76000000      0.15720000     25.95900000     16.98400000     -3.07000000
      3.39970000    359.82400000     -0.11340000     24.02900000     16.87300000     -4.11000000
      2.59960000     62.76000000      0.14170000     23.46300000     17.40600000     -3.34600000
      3.39970000    359.82400000     -0.19720000     23.35800000     16.40400000     -5.25200000
      2.59960000     62.76000000      0.14470000     22.27400000     16.46500000     -5.34800000
      3.39970000    359.82400000     -0.23870000     24.06600000     15.85000000     -6.28800000
      2.59960000     62.76000000      0.17000000     23.53500000     15.61900000     -7.21100000
      3.39970000    359.82400000      0.12430000     25.44000000     15.64400000     -6.12800000
      3.39970000    359.82400000      0.59730000     27.27600000     16.30000000     -9.57700000
      2.95990000    878.64000000     -0.56790000     27.09100000     17.50200000     -9.51600000
      3.25000000    711.28000000     -0.41570000     28.44400000     15.74500000     -9.91200000
      1.06910000     65.68880000      0.27190000     28.51500000     14.74300000    -10.01400000
      3.39970000    457.72960000      0.03370000     29.68000000     16.55700000    -10.05800000
      2.47140000     65.68880000      0.08230000     29.84100000     17.09600000     -9.12400000
      3.39970000    457.72960000     -0.18250000     30.88600000     15.66800000    -10.32100000
      2.64950000     65.68880000      0.06030000     30.74300000     15.12900000    -11.25700000
      2.64950000     65.68880000      0.06030000     31.78300000     16.28300000    -10.39000000
      2.64950000     65.68880000      0.06030000     30.99700000     14.95400000     -9.50500000
      3.39970000    359.82400000      0.59730000     29.52000000     17.60600000    -11.16200000
      2.95990000    878.64000000     -0.56790000     29.96500000     18.74400000    -11.03000000
      3.25000000    711.28000000     -0.41570000     28.93500000     17.21500000    -12.28200000
      1.06910000     65.68880000      0.27190000     28.66000000     16.24700000    -12.37100000
      3.39970000    457.72960000      0.03370000     28.76700000     18.08600000    -13.43000000
      2.47140000     65.68880000      0.08230000     29.76900000     18.42700000    -13.69000000
      3.39970000    457.72960000     -0.18250000     28.16900000     17.34700000    -14.64200000
      2.64950000     65.68880000      0.06030000     27.16200000     17.00700000    -14.40000000
      2.64950000     65.68880000      0.06030000     28.12800000     18.02300000    -15.49600000
      2.64950000     65.68880000      0.06030000     28.79300000     16.48800000    -14.88800000
      3.39970000    359.82400000      0.59730000     27.94200000     19.31500000    -13.09700000
      2.95990000    878.64000000     -0.56790000     28.21800000     20.39200000    -13.66400000
      3.25000000    711.28000000     -0.41570000     26.96800000     19.18400000    -12.21300000
      1.06910000     65.68880000      0.27190000     26.72500000     18.25800000    -11.89200000
      3.39970000    457.72960000     -0.00240000     26.09000000     20.29600000    -11.85000000
      2.47140000     65.68880000      0.09780000     26.25800000     21.13900000    -12.52000000
      3.39970000    457.72960000     -0.03430000     24.65100000     19.87200000    -11.96300000
      2.64950000     65.68880000      0.02950000     24.54200000     18.90200000    -11.47800000
      2.64950000     65.68880000      0.02950000     23.97600000     20.58900000    -11.49600000
      3.39970000    359.82400000      0.01180000     24.18700000     19.70200000    -13.36300000
      3.39970000    359.82400000     -0.12560000     24.36300000     18.50900000    -14.01500000
      2.59960000     62.76000000      0.13300000     24.79900000     17.67200000    -13.47000000
      3.39970000    359.82400000     -0.17040000     23.99700000     18.35600000    -15.34700000
      2.59960000     62.76000000      0.14300000     24.14200000     17.39400000    -15.83900000
      3.39970000    359.82400000     -0.10720000     23.44000000     19.43800000    -16.06300000
      2.59960000     62.76000000      0.12970000     23.20600000     19.35300000    -17.12400000
      3.39970000    359.82400000     -0.17040000     23.19000000     20.63300000    -15.38700000
      2.59960000     62.76000000      0.14300000     22.67500000     21.45100000    -15.89000000
      3.39970000    359.82400000     -0.12560000     23.59600000     20.77600000    -14.08100000
      2.59960000     62.76000000      0.13300000     23.46700000     21.73100000    -13.57200000
      3.39970000    359.82400000      0.59730000     26.43100000     20.98400000    -10.52800000
      2.95990000    878.64000000     -0.56790000     25.60600000     21.70300000    -10.00100000
      3.25000000    711.28000000     -0.41570000     27.66700000     20.79400000    -10.01400000
      1.06910000     65.68880000      0.27190000     28.28900000     20.11900000    -10.43600000
      3.39970000    457.72960000     -0.02520000     28.14400000     21.54500000     -8.84700000
      2.47140000     65.68880000      0.06980000     29.19400000     21.76400000     -9.04000000
      2.47140000     65.68880000      0.06980000     27.57500000     22.47500000     -8.83500000
      3.39970000    359.82400000      0.59730000     28.02200000     20.88100000     -7.50700000
      2.95990000    878.64000000     -0.56790000     28.30400000     21.47800000     -6.46900000
      3.25000000    711.28000000     -0.41570000     27.62100000     19.62200000     -7.51100000
      1.06910000     65.68880000      0.27190000     27.30500000     19.15300000     -8.34800000
      3.39970000    457.72960000     -0.02520000     27.63200000     18.88900000     -6.28800000
      2.47140000     65.68880000      0.06980000     27.23800000     19.51800000     -5.48900000
      2.47140000     65.68880000      0.06980000     27.00500000     18.00400000     -6.39500000
      3.39970000    359.82400000      0.59730000     29.04700000     18.45400000     -5.92500000
      2.95990000    878.64000000     -0.56790000     29.80500000     18.03100000     -6.77900000
      3.25000000    711.28000000     -0.41570000     29.31000000     18.42100000     -4.64400000
      1.06910000     65.68880000      0.27190000     28.69000000     18.85600000     -3.97500000
      3.39970000    457.72960000     -0.08750000     30.54000000     17.83900000     -4.16000000
      2.47140000     65.68880000      0.09690000     31.10900000     17.34700000     -4.94900000
      3.39970000    457.72960000      0.29850000     31.42800000     18.91800000     -3.51200000
      2.64950000     65.68880000     -0.02970000     31.57200000     19.72400000     -4.23100000
      3.39970000    457.72960000     -0.31920000     30.79400000     19.47700000     -2.24200000
      2.64950000     65.68880000      0.07910000     30.65000000     18.67100000     -1.52200000
      2.64950000     65.68880000      0.07910000     31.44800000     20.23500000     -1.81200000
      2.64950000     65.68880000      0.07910000     29.83000000     19.92400000     -2.48300000
      3.39970000    457.72960000     -0.31920000     32.81700000     18.35500000     -3.21800000
      2.64950000     65.68880000      0.07910000     33.28000000     18.02500000     -4.14800000
      2.64950000     65.68880000      0.07910000     33.43400000     19.12800000     -2.76000000
      2.64950000     65.68880000      0.07910000     32.73000000     17.50900000     -2.53600000
      3.39970000    359.82400000      0.59730000     30.22100000     16.68500000     -3.18300000
      2.95990000    878.64000000     -0.56790000     29.18800000     16.69900000     -2.54500000
      3.25000000    711.28000000     -0.41570000     31.15000000     15.72200000     -3.11500000
      1.06910000     65.68880000      0.27190000     31.94800000     15.79400000     -3.73000000
      3.39970000    457.72960000     -0.02520000     31.07700000     14.61200000     -2.23300000
      2.47140000     65.68880000      0.06980000     32.01700000     14.06000000     -2.26300000
      2.47140000     65.68880000      0.06980000     30.89600000     14.96500000     -1.21800000
      3.39970000    359.82400000      0.59730000     29.93000000     13.67200000     -2.64900000
      2.95990000    878.64000000     -0.56790000     29.40700000     13.70000000     -3.77300000
      3.25000000    711.28000000     -0.41570000     29.52100000     12.87200000     -1.70300000
      1.06910000     65.68880000      0.27190000     29.96100000     12.93100000     -0.79600000
      3.39970000    457.72960000      0.01430000     28.45900000     11.88900000     -1.89400000
      2.47140000     65.68880000      0.10480000     28.53200000     11.39800000     -2.86500000
      3.39970000    457.72960000     -0.20410000     28.64100000     10.83700000     -0.80000000
      2.64950000     65.68880000      0.07970000     29.65900000     10.45200000     -0.74300000
      2.64950000     65.68880000      0.07970000     28.40200000     11.36900000      0.12100000
      3.39970000    359.82400000      0.71300000     27.68300000      9.66000000     -0.94500000
      2.95990000    878.64000000     -0.59310000     26.59500000      9.79700000     -1.48900000
      3.25000000    711.28000000     -0.91910000     28.12900000      8.50000000     -0.56800000
      1.06910000     65.68880000      0.41960000     27.53600000      7.68600000     -0.64200000
      1.06910000     65.68880000      0.41960000     29.06700000      8.41700000     -0.20200000
      3.39970000    359.82400000      0.59730000     27.07400000     12.58600000     -1.77600000
      2.95990000    878.64000000     -0.56790000     26.81700000     13.23100000     -0.79300000
      3.25000000    711.28000000     -0.25480000     26.18600000     12.44500000     -2.78700000
      3.39970000    457.72960000      0.01920000     26.49700000     11.84600000     -4.13000000
      2.47140000     65.68880000      0.03910000     26.53500000     10.75900000     -4.05300000
      2.47140000     65.68880000      0.03910000     27.45600000     12.21800000     -4.49000000
      3.39970000    457.72960000      0.01890000     25.36800000     12.31600000     -4.95200000
      2.64950000     65.68880000      0.02130000     25.06900000     11.51500000     -5.62800000
      2.64950000     65.68880000      0.02130000     25.69300000     13.17900000     -5.53400000
      3.39970000    457.72960000     -0.00700000     24.28300000     12.67900000     -4.04100000
      2.64950000     65.68880000      0.02530000     23.60800000     11.83500000     -3.89800000
      2.64950000     65.68880000      0.02530000     23.72600000     13.52600000     -4.44200000
      3.39970000    457.72960000     -0.02660000     24.91800000     13.05700000     -2.72300000
      2.47140000     65.68880000      0.06410000     25.06900000     14.13700000     -2.72000000
      3.39970000    359.82400000      0.58960000     24.12200000     12.64900000     -1.47500000
      2.95990000    878.64000000     -0.57480000     23.29700000     13.43700000     -0.96000000
      3.25000000    711.28000000     -0.41570000     24.37200000     11.45300000     -0.98700000
      1.06910000     65.68880000      0.27190000     25.05400000     10.87000000     -1.45000000
      3.39970000    457.72960000      0.03370000     23.64900000     10.89700000      0.17500000
      2.47140000     65.68880000      0.08230000     22.59300000     11.11300000      0.01400000
      3.39970000    457.72960000     -0.18250000     23.82900000      9.38000000      0.27300000
      2.64950000     65.68880000      0.06030000     24.88000000      9.14900000      0.44400000
      2.64950000     65.68880000      0.06030000     23.23400000      8.99600000      1.10100000
      2.64950000     65.68880000      0.06030000     23.50100000      8.91400000     -0.65600000
      3.39970000    359.82400000      0.59730000     24.05800000     11.51600000      1.47300000
      2.95990000    878.64000000     -0.56790000     23.33100000     11.38100000      2.45200000
      3.25000000    711.28000000     -0.41570000     25.20100000     12.18400000      1.52300000
      1.06910000     65.68880000      0.27190000     25.83900000     12.06500000      0.74900000
      3.39970000    457.72960000      0.03370000     25.62400000     12.99000000      2.63900000
      2.47140000     65.68880000      0.08230000     25.15500000     12.55100000      3.52000000
      3.39970000    457.72960000     -0.18250000     27.18400000     12.88800000      2.79700000
      2.64950000     65.68880000      0.06030000     27.66800000     13.33200000      1.92700000
      2.64950000     65.68880000      0.06030000     27.49400000     13.42100000      3.69600000
      2.64950000     65.68880000      0.06030000     27.47400000     11.84000000      2.87800000
      3.39970000    359.82400000      0.59730000     25.20200000     14.46100000      2.57300000
      2.95990000    878.64000000     -0.56790000     25.36900000     15.22700000      3.55000000
      3.25000000    711.28000000     -0.41570000     24.66800000     14.89800000      1.42200000
      1.06910000     65.68880000      0.27190000     24.52800000     14.25900000      0.65200000
      3.39970000    457.72960000      0.03370000     24.27900000     16.29200000      1.24300000
      2.47140000     65.68880000      0.08230000     24.92800000     16.99800000      1.76200000
      3.39970000    457.72960000     -0.18250000     24.27600000     16.62800000     -0.21300000
      2.64950000     65.68880000      0.06030000     23.62400000     15.93500000     -0.74500000
      2.64950000     65.68880000      0.06030000     23.91300000     17.64700000     -0.35100000
      2.64950000     65.68880000      0.06030000     25.28900000     16.54700000     -0.60700000
      3.39970000    359.82400000      0.59730000     22.87400000     16.44300000      1.83900000
      2.95990000    878.64000000     -0.56790000     22.15700000     15.41900000      1.95800000
      3.25000000    711.28000000     -0.41570000     22.54300000     17.62000000      2.34700000
      1.06910000     65.68880000      0.27190000     23.24000000     18.34400000      2.44200000
      3.39970000    457.72960000     -0.02490000     21.19200000     17.87700000      2.87600000
      2.47140000     65.68880000      0.08430000     20.95200000     17.11900000      3.62100000
      3.39970000    457.72960000      0.21170000     21.08500000     19.23700000      3.52000000
      2.47140000     65.68880000      0.03520000     20.11400000     19.29800000      4.01100000
      2.47140000     65.68880000      0.03520000     21.87400000     19.31500000      4.26700000
      3.06650000    880.31360000     -0.65460000     21.21100000     20.29800000      2.58700000
      1.24730000     41.84000000      0.42750000     21.13600000     21.13800000      3.04600000
      3.39970000    359.82400000      0.59730000     20.18100000     17.69200000      1.73700000
      2.95990000    878.64000000     -0.56790000     20.51900000     17.81800000      0.58000000
      3.25000000    711.28000000     -0.34790000     18.93000000     17.41000000      2.09400000
      1.06910000     65.68880000      0.27470000     18.72100000     17.13700000      3.04400000
      3.39970000    457.72960000     -0.26370000     17.82500000     17.48400000      1.13300000
      2.47140000     65.68880000      0.15600000     17.87500000     16.64700000      0.43700000
      3.39970000    457.72960000     -0.00070000     16.45900000     17.42100000      1.89400000
      2.64950000     65.68880000      0.03270000     16.34200000     16.39800000      2.25100000
      2.64950000     65.68880000      0.03270000     16.54000000     18.09600000      2.74600000
      3.39970000    457.72960000      0.03900000     15.26400000     17.80200000      1.06500000
      2.64950000     65.68880000      0.02850000     15.38200000     18.82800000      0.71800000
      2.64950000     65.68880000      0.02850000     15.19700000     17.13400000      0.20600000
      3.39970000    457.72960000      0.04860000     13.98600000     17.69000000      1.89800000
      2.47140000     65.68880000      0.06870000     13.79300000     16.64200000      2.12600000
      2.47140000     65.68880000      0.06870000     14.10900000     18.24700000      2.82700000
      3.25000000    711.28000000     -0.52950000     12.82400000     18.23700000      1.16900000
      1.06910000     65.68880000      0.34560000     12.18300000     17.54800000      0.80100000
      3.39970000    359.82400000      0.80760000     12.54600000     19.51600000      0.98900000
      3.25000000    711.28000000     -0.86270000     13.27900000     20.50500000      1.48600000
      1.06910000     65.68880000      0.44780000     14.10000000     20.29400000      2.03600000
      1.06910000     65.68880000      0.44780000     13.01300000     21.46400000      1.31200000
      3.25000000    711.28000000     -0.86270000     11.53300000     19.86100000      0.27300000
      1.06910000     65.68880000      0.44780000     10.95200000     19.15100000     -0.15000000
      1.06910000     65.68880000      0.44780000     11.32400000     20.84000000      0.13800000
      3.39970000    359.82400000      0.73410000     17.88700000     18.77100000      0.35100000
      2.95990000    878.64000000     -0.58940000     17.73600000     18.77200000     -0.84700000
      3.25000000    711.28000000     -0.51630000     18.06100000     19.89000000      1.05100000
      1.06910000     65.68880000      0.29360000     18.01300000     19.85100000      2.05900000
      3.39970000    457.72960000      0.03970000     18.11000000     21.23100000      0.39600000
      2.47140000     65.68880000      0.11050000     17.24100000     21.33600000     -0.25300000
      3.39970000    457.72960000      0.05600000     18.10700000     22.37400000      1.40100000
      2.64950000     65.68880000     -0.01730000     18.96900000     22.23100000      2.05200000
      2.64950000     65.68880000     -0.01730000     18.22800000     23.29800000      0.83600000
      3.39970000    457.72960000      0.01360000     16.82400000     22.45900000      2.25700000
      2.64950000     65.68880000     -0.04250000     16.91200000     23.36600000      2.85400000
      2.64950000     65.68880000     -0.04250000     15.96500000     22.54500000      1.59100000
      3.39970000    359.82400000      0.80540000     16.62800000     21.22300000      3.20800000
      2.95990000    878.64000000     -0.81880000     17.62600000     20.57400000      3.74000000
      2.95990000    878.64000000     -0.81880000     15.42600000     20.84400000      3.42900000
      3.39970000    359.82400000      0.53660000     19.25600000     21.30900000     -0.65400000
      2.95990000    878.64000000     -0.58190000     19.01800000     21.83400000     -1.71300000
      3.25000000    711.28000000     -0.41570000     20.42900000     20.75800000     -0.35500000
      1.06910000     65.68880000      0.27190000     20.58600000     20.37200000      0.56500000
      3.39970000    457.72960000     -0.00310000     21.56000000     20.76600000     -1.31700000
      2.47140000     65.68880000      0.08500000     21.67900000     21.76300000     -1.74200000
      3.39970000    457.72960000     -0.00360000     22.85000000     20.38100000     -0.61400000
      2.64950000     65.68880000      0.01710000     22.70000000     19.42700000     -0.10900000
      2.64950000     65.68880000      0.01710000     23.63600000     20.27600000     -1.36200000
      3.39970000    457.72960000     -0.06450000     23.26200000     21.44600000      0.41500000
      2.64950000     65.68880000      0.03520000     23.64900000     22.31500000     -0.11700000
      2.64950000     65.68880000      0.03520000     22.37000000     21.73100000      0.97400000
      3.39970000    359.82400000      0.69510000     24.30600000     20.97300000      1.38600000
      2.95990000    878.64000000     -0.60860000     24.37600000     19.79600000      1.74800000
      3.25000000    711.28000000     -0.94070000     25.13900000     21.88200000      1.81100000
      1.06910000     65.68880000      0.42510000     25.86600000     21.63000000      2.46600000
      1.06910000     65.68880000      0.42510000     25.05400000     22.83400000      1.48300000
      3.39970000    359.82400000      0.59730000     21.28600000     19.86800000     -2.47300000
      2.95990000    878.64000000     -0.56790000     21.64500000     20.20300000     -3.64400000
      3.25000000    711.28000000     -0.41570000     20.68400000     18.75000000     -2.20100000
      1.06910000     65.68880000      0.27190000     20.52100000     18.47700000     -1.24200000
      3.39970000    457.72960000     -0.00310000     20.31300000     17.82300000     -3.25200000
      2.47140000     65.68880000      0.08500000     21.19500000     17.58200000     -3.84500000
      3.39970000    457.72960000     -0.00360000     19.73900000     16.53200000     -2.68700000
      2.64950000     65.68880000      0.01710000     18.92200000     16.79800000     -2.01700000
      2.64950000     65.68880000      0.01710000     19.34900000     15.94900000     -3.52200000
      3.39970000    457.72960000     -0.06450000     20.77700000     15.69800000     -1.92200000
      2.64950000     65.68880000      0.03520000     21.59400000     15.45700000     -2.60300000
      2.64950000     65.68880000      0.03520000     21.15900000     16.29300000     -1.09300000
      3.39970000    359.82400000      0.69510000     20.21100000     14.40700000     -1.37000000
      2.95990000    878.64000000     -0.60860000     19.60600000     13.60400000     -2.08500000
      3.25000000    711.28000000     -0.94070000     20.41000000     14.22000000     -0.09800000
      1.06910000     65.68880000      0.42510000     20.06300000     13.38200000      0.34600000
      1.06910000     65.68880000      0.42510000     20.91100000     14.91400000      0.43900000
      3.39970000    359.82400000      0.59730000     19.32000000     18.50700000     -4.23000000
      2.95990000    878.64000000     -0.56790000     19.38400000     18.27200000     -5.44700000
      3.25000000    711.28000000     -0.41570000     18.28700000     19.15800000     -3.66400000
      1.06910000     65.68880000      0.27190000     18.12600000     19.02600000     -2.67600000
      3.39970000    457.72960000     -0.05970000     17.29000000     19.90300000     -4.43600000
      2.47140000     65.68880000      0.08690000     16.89000000     19.34300000     -5.28100000
      3.39970000    457.72960000      0.13030000     16.15800000     20.36300000     -3.55800000
      2.64950000     65.68880000      0.01870000     16.57400000     20.73400000     -2.62100000
      3.39970000    457.72960000     -0.32040000     15.35500000     21.46200000     -4.22400000
      2.64950000     65.68880000      0.08820000     14.93800000     21.09200000     -5.16100000
      2.64950000     65.68880000      0.08820000     14.54500000     21.77200000     -3.56400000
      2.64950000     65.68880000      0.08820000     16.00300000     22.31400000     -4.42700000
      3.39970000    457.72960000     -0.04300000     15.31900000     19.13600000     -3.15800000
      2.64950000     65.68880000      0.02360000     14.81900000     18.77300000     -4.05600000
      2.64950000     65.68880000      0.02360000     16.00600000     18.37300000     -2.79200000
      3.39970000    457.72960000     -0.06600000     14.30100000     19.43300000     -2.10700000
      2.64950000     65.68880000      0.01860000     13.61300000     20.19600000     -2.47200000
      2.64950000     65.68880000      0.01860000     13.74500000     18.52500000     -1.87200000
      2.64950000     65.68880000      0.01860000     14.80100000     19.79500000     -1.20900000
      3.39970000    359.82400000      0.59730000     17.94200000     21.01000000     -5.23900000
      2.95990000    878.64000000     -0.56790000     17.57100000     21.20800000     -6.41300000
      3.25000000    711.28000000     -0.41570000     18.86800000     21.75800000     -4.66300000
      1.06910000     65.68880000      0.27190000     19.04900000     21.63700000     -3.67700000
      3.39970000    457.72960000      0.03370000     19.57600000     22.78500000     -5.36100000
      2.47140000     65.68880000      0.08230000     18.85800000     23.53900000     -5.68400000
      3.39970000    457.72960000     -0.18250000     20.61500000     23.44900000     -4.49500000
      2.64950000     65.68880000      0.06030000     21.34600000     22.70800000     -4.17100000
      2.64950000     65.68880000      0.06030000     21.11800000     24.23100000     -5.06500000
      2.64950000     65.68880000      0.06030000     20.13400000     23.88900000     -3.62200000
      3.39970000    359.82400000      0.59730000     20.20700000     22.20200000     -6.61200000
      2.95990000    878.64000000     -0.56790000     20.15600000     22.86000000     -7.67800000
      3.25000000    711.28000000     -0.41570000     20.90200000     21.08000000     -6.49200000
      1.06910000     65.68880000      0.27190000     21.05300000     20.67700000     -5.57800000
      3.39970000    457.72960000     -0.08750000     21.57400000     20.45700000     -7.65300000
      2.47140000     65.68880000      0.09690000     22.10000000     21.23600000     -8.20500000
      3.39970000    457.72960000      0.29850000     22.59000000     19.34000000     -7.28000000
      2.64950000     65.68880000     -0.02970000     22.07100000     18.55500000     -6.73000000
      3.39970000    457.72960000     -0.31920000     23.21200000     18.75100000     -8.53600000
      2.64950000     65.68880000      0.07910000     23.73200000     19.53500000     -9.08700000
      2.64950000     65.68880000      0.07910000     23.92100000     17.97100000     -8.25900000
      2.64950000     65.68880000      0.07910000     22.43000000     18.32500000     -9.16400000
      3.39970000    457.72960000     -0.31920000     23.66100000     19.91400000     -6.41200000
      2.64950000     65.68880000      0.07910000     23.21500000     20.31900000     -5.50300000
      2.64950000     65.68880000      0.07910000     24.37400000     19.13300000     -6.14900000
      2.64950000     65.68880000      0.07910000     24.17700000     20.71000000     -6.94900000
      3.39970000    359.82400000      0.59730000     20.54900000     19.92200000     -8.67700000
      2.95990000    878.64000000     -0.56790000     20.65300000     20.19900000     -9.86400000
      3.25000000    711.28000000     -0.41570000     19.46600000     19.34800000     -8.19100000
      1.06910000     65.68880000      0.27190000     19.39300000     19.09500000     -7.21600000
      3.39970000    457.72960000      0.03370000     18.34200000     18.96600000     -9.11200000
      2.47140000     65.68880000      0.08230000     18.78900000     18.26700000     -9.81900000
      3.39970000    457.72960000     -0.18250000     17.25000000     18.24800000     -8.34500000
      2.64950000     65.68880000      0.06030000     16.78700000     18.93800000     -7.64000000
      2.64950000     65.68880000      0.06030000     16.49600000     17.88200000     -9.04200000
      2.64950000     65.68880000      0.06030000     17.68000000     17.40700000     -7.80100000
      3.39970000    359.82400000      0.59730000     17.71800000     20.10400000     -9.90200000
      2.95990000    878.64000000     -0.56790000     17.46200000     19.93400000    -11.07600000
      3.25000000    711.28000000     -0.41570000     17.53500000     21.24700000     -9.27900000
      1.06910000     65.68880000      0.27190000     17.66100000     21.28200000     -8.27700000
      3.39970000    457.72960000      0.01430000     16.99500000     22.42200000     -9.94800000
      2.47140000     65.68880000      0.10480000     16.06600000     22.14300000    -10.44600000
      3.39970000    457.72960000     -0.20410000     16.70700000     23.57100000     -8.98800000
      2.64950000     65.68880000      0.07970000     17.52300000     23.58900000     -8.26600000
      2.64950000     65.68880000      0.07970000     16.66300000     24.52700000     -9.51000000
      3.39970000    359.82400000      0.71300000     15.41200000     23.36800000     -8.24600000
      2.95990000    878.64000000     -0.59310000     14.43200000     22.86900000     -8.81200000
      3.25000000    711.28000000     -0.91910000     15.36200000     23.80800000     -6.97900000
      1.06910000     65.68880000      0.41960000     14.51500000     23.69400000     -6.44100000
      1.06910000     65.68880000      0.41960000     16.17200000     24.25100000     -6.56900000
      3.39970000    359.82400000      0.59730000     17.90900000     22.81300000    -11.12900000
      2.95990000    878.64000000     -0.56790000     17.42300000     23.15500000    -12.21800000
      3.25000000    711.28000000     -0.34790000     19.23000000     22.77900000    -10.93900000
      1.06910000     65.68880000      0.27470000     19.60900000     22.64500000    -10.01200000
      3.39970000    457.72960000     -0.26370000     20.16000000     23.00500000    -12.04100000
      2.47140000     65.68880000      0.15600000     19.95500000     23.96300000    -12.51900000
      3.39970000    457.72960000     -0.00070000     21.57200000     23.02400000    -11.51100000
      2.64950000     65.68880000      0.03270000     21.76800000     22.06200000    -11.03800000
      2.64950000     65.68880000      0.03270000     22.24800000     23.15800000    -12.35600000
      3.39970000    457.72960000      0.03900000     21.79400000     24.12900000    -10.51100000
      2.64950000     65.68880000      0.02850000     21.80600000     25.09700000    -11.01200000
      2.64950000     65.68880000      0.02850000     21.00800000     24.12100000     -9.75500000
      3.39970000    457.72960000      0.04860000     23.12200000     23.89000000     -9.85400000
      2.47140000     65.68880000      0.06870000     23.08300000     22.97200000     -9.26800000
      2.47140000     65.68880000      0.06870000     23.89800000     23.80300000    -10.61400000
      3.25000000    711.28000000     -0.52950000     23.45200000     24.97200000     -8.98600000
      1.06910000     65.68880000      0.34560000     22.75400000     25.69400000     -8.87700000
      3.39970000    359.82400000      0.80760000     24.61900000     25.14100000     -8.41900000
      3.25000000    711.28000000     -0.86270000     25.56400000     24.21700000     -8.56700000
      1.06910000     65.68880000      0.44780000     25.37600000     23.39000000     -9.11600000
      1.06910000     65.68880000      0.44780000     26.46500000     24.34600000     -8.13000000
      3.25000000    711.28000000     -0.86270000     24.79700000     26.16700000     -7.61800000
      1.06910000     65.68880000      0.44780000     24.03700000     26.81000000     -7.44900000
      1.06910000     65.68880000      0.44780000     25.69300000     26.30800000     -7.17500000
      3.39970000    359.82400000      0.73410000     20.05800000     21.97400000    -13.19600000
      2.95990000    878.64000000     -0.58940000     20.07900000     22.36600000    -14.39400000
      3.25000000    711.28000000     -0.41570000     19.94900000     20.69800000    -12.84500000
      1.06910000     65.68880000      0.27190000     20.02600000     20.45600000    -11.86800000
      3.39970000    457.72960000     -0.08750000     19.78000000     19.61700000    -13.81600000
      2.47140000     65.68880000      0.09690000     20.59800000     19.63900000    -14.53600000
      3.39970000    457.72960000      0.29850000     19.75100000     18.20100000    -13.13100000
      2.64950000     65.68880000     -0.02970000     19.02000000     18.22000000    -12.32300000
      3.39970000    457.72960000     -0.31920000     19.37900000     17.12300000    -14.12000000
      2.64950000     65.68880000      0.07910000     20.11000000     17.10300000    -14.92800000
      2.64950000     65.68880000      0.07910000     19.36700000     16.15600000    -13.61700000
      2.64950000     65.68880000      0.07910000     18.39100000     17.33100000    -14.53000000
      3.39970000    457.72960000     -0.31920000     21.13200000     17.88500000    -12.53400000
      2.64950000     65.68880000      0.07910000     21.38900000     18.64000000    -11.79100000
      2.64950000     65.68880000      0.07910000     21.10800000     16.90400000    -12.06100000
      2.64950000     65.68880000      0.07910000     21.88000000     17.88700000    -13.32700000
      3.39970000    359.82400000      0.59730000     18.52700000     19.82300000    -14.60800000
      2.95990000    878.64000000     -0.56790000     18.49200000     19.65200000    -15.85000000
      3.25000000    711.28000000     -0.41570000     17.48300000     20.20500000    -13.95000000
      1.06910000     65.68880000      0.27190000     17.53900000     20.25800000    -12.94300000
      3.39970000    457.72960000     -0.05180000     16.18300000     20.49400000    -14.59700000
      2.47140000     65.68880000      0.09220000     15.84700000     19.61000000    -15.13900000
      3.39970000    457.72960000     -0.11020000     15.11600000     20.87300000    -13.57300000
      2.64950000     65.68880000      0.04570000     15.07100000     19.97300000    -12.95900000
      2.64950000     65.68880000      0.04570000     15.49200000     21.70200000    -12.97400000
      3.39970000    457.72960000      0.35310000     13.72200000     21.20800000    -14.08500000
      2.64950000     65.68880000     -0.03610000     13.81100000     22.04300000    -14.78000000
      3.39970000    457.72960000     -0.41210000     13.06800000     20.04500000    -14.78100000
      2.64950000     65.68880000      0.10000000     12.97800000     19.20900000    -14.08700000
      2.64950000     65.68880000      0.10000000     12.07700000     20.33800000    -15.12600000
      2.64950000     65.68880000      0.10000000     13.67500000     19.74400000    -15.63500000
      3.39970000    457.72960000     -0.41210000     12.85400000     21.72100000    -12.95400000
      2.64950000     65.68880000      0.10000000     13.30200000     22.62000000    -12.53000000
      2.64950000     65.68880000      0.10000000     11.86000000     21.95600000    -13.33600000
      2.64950000     65.68880000      0.10000000     12.77400000     20.95700000    -12.18100000
      3.39970000    359.82400000      0.59730000     16.28200000     21.56900000    -15.63700000
      2.95990000    878.64000000     -0.56790000     15.73600000     21.43000000    -16.75000000
      3.25000000    711.28000000     -0.41570000     16.90500000     22.70100000    -15.27100000
      1.06910000     65.68880000      0.27190000     17.20800000     22.81300000    -14.31400000
      3.39970000    457.72960000      0.03370000     17.08500000     23.80800000    -16.18000000
      2.47140000     65.68880000      0.08230000     16.10400000     24.15400000    -16.50600000
      3.39970000    457.72960000     -0.18250000     17.80600000     24.97400000    -15.45400000
      2.64950000     65.68880000      0.06030000     18.79300000     24.64600000    -15.13000000
      2.64950000     65.68880000      0.06030000     17.91000000     25.81800000    -16.13600000
      2.64950000     65.68880000      0.06030000     17.22200000     25.27900000    -14.58600000
      3.39970000    359.82400000      0.59730000     17.82800000     23.38200000    -17.41300000
      2.95990000    878.64000000     -0.56790000     17.47600000     23.76200000    -18.50400000
      3.25000000    711.28000000     -0.51630000     18.89300000     22.59600000    -17.27200000
      1.06910000     65.68880000      0.29360000     19.14700000     22.25000000    -16.35800000
      3.39970000    457.72960000      0.03970000     19.76100000     22.21400000    -18.45000000
      2.47140000     65.68880000      0.11050000     19.83700000     23.04300000    -19.15400000
      3.39970000    457.72960000      0.05600000     21.14300000     21.87700000    -17.95200000
      2.64950000     65.68880000     -0.01730000     21.51700000     22.76500000    -17.44300000
      2.64950000     65.68880000     -0.01730000     21.02700000     21.06700000    -17.23100000
      3.39970000    457.72960000      0.01360000     22.13400000     21.45600000    -19.03500000
      2.64950000     65.68880000     -0.04250000     23.00100000     21.01800000    -18.54100000
      2.64950000     65.68880000     -0.04250000     21.66200000     20.70700000    -19.67000000
      3.39970000    359.82400000      0.80540000     22.57200000     22.61900000    -19.87500000
      2.95990000    878.64000000     -0.81880000     22.43800000     23.78400000    -19.39600000
      2.95990000    878.64000000     -0.81880000     23.04200000     22.38700000    -21.02300000
      3.39970000    359.82400000      0.53660000     19.26900000     21.00200000    -19.29400000
      2.95990000    878.64000000     -0.58190000     19.37900000     21.03300000    -20.51400000
      3.25000000    711.28000000     -0.41570000     18.66700000     19.98500000    -18.64200000
      1.06910000     65.68880000      0.27190000     18.47900000     20.12400000    -17.65900000
      3.39970000    457.72960000     -0.00310000     18.27600000     18.73300000    -19.24200000
      2.47140000     65.68880000      0.08500000     18.62700000     18.66500000    -20.27200000
      3.39970000    457.72960000     -0.00360000     18.92700000     17.58300000    -18.41800000
      2.64950000     65.68880000      0.01710000     18.59300000     17.68800000    -17.38600000
      2.64950000     65.68880000      0.01710000     18.56200000     16.64000000    -18.82400000
      3.39970000    457.72960000     -0.06450000     20.44900000     17.59900000    -18.46300000
      2.64950000     65.68880000      0.03520000     20.78300000     17.67300000    -19.49800000
      2.64950000     65.68880000      0.03520000     20.78000000     18.47900000    -17.91100000
      3.39970000    359.82400000      0.69510000     21.07900000     16.36800000    -17.83600000
      2.95990000    878.64000000     -0.60860000     20.40600000     15.50500000    -17.28600000
      3.25000000    711.28000000     -0.94070000     22.38900000     16.27600000    -17.94900000
      1.06910000     65.68880000      0.42510000     22.87200000     15.48200000    -17.55400000
      1.06910000     65.68880000      0.42510000     22.90300000     17.00000000    -18.43000000
      3.39970000    359.82400000      0.59730000     16.74500000     18.45800000    -19.28300000
      2.95990000    878.64000000     -0.56790000     16.28500000     17.52800000    -19.93500000
      3.25000000    711.28000000     -0.41570000     15.94600000     19.19100000    -18.49900000
      1.06910000     65.68880000      0.27190000     16.35200000     19.96300000    -17.99000000
      3.39970000    457.72960000     -0.02520000     14.51100000     18.93100000    -18.34100000
      2.47140000     65.68880000      0.06980000     14.04600000     19.81300000    -17.90100000
      2.47140000     65.68880000      0.06980000     14.08200000     18.74900000    -19.32600000
      3.39970000    359.82400000      0.59730000     14.23000000     17.71200000    -17.43800000
      2.95990000    878.64000000     -0.56790000     15.15000000     17.11200000    -16.84600000
      3.25000000    711.28000000     -0.41570000     12.94400000     17.33800000    -17.33000000
      1.06910000     65.68880000      0.27190000     12.23100000     17.84700000    -17.83300000
      3.39970000    457.72960000     -0.05180000     12.53900000     16.20900000    -16.52200000
      2.47140000     65.68880000      0.09220000     12.99600000     16.27200000    -15.53400000
      3.39970000    457.72960000     -0.11020000     11.02200000     16.20600000    -16.35800000
      2.64950000     65.68880000      0.04570000     10.62500000     16.29700000    -17.36900000
      2.64950000     65.68880000      0.04570000     10.75700000     15.23000000    -15.95100000
      3.39970000    457.72960000      0.35310000     10.43500000     17.29100000    -15.48700000
      2.64950000     65.68880000     -0.03610000     10.73900000     18.27100000    -15.85500000
      3.39970000    457.72960000     -0.41210000      8.90800000     17.17800000    -15.53800000
      2.64950000     65.68880000      0.10000000      8.60300000     16.19800000    -15.17000000
      2.64950000     65.68880000      0.10000000      8.46500000     17.95400000    -14.91400000
      2.64950000     65.68880000      0.10000000      8.56800000     17.30100000    -16.56600000
      3.39970000    457.72960000     -0.41210000     10.91400000     17.15200000    -14.07800000
      2.64950000     65.68880000      0.10000000     12.00100000     17.23000000    -14.05400000
      2.64950000     65.68880000      0.10000000     10.48000000     17.94300000    -13.46600000
      2.64950000     65.68880000      0.10000000     10.61100000     16.18200000    -13.68500000
      3.39970000    359.82400000      0.59730000     12.94800000     14.88400000    -17.18900000
      2.95990000    878.64000000     -0.56790000     12.88200000     13.86600000    -16.54400000
      3.25000000    711.28000000     -0.51630000     13.46200000     14.91700000    -18.42000000
      1.06910000     65.68880000      0.29360000     13.30100000     15.73700000    -18.98800000
      3.39970000    457.72960000      0.03810000     14.16300000     13.76800000    -19.03100000
      2.47140000     65.68880000      0.08800000     13.46400000     12.93500000    -19.10200000
      3.39970000    457.72960000     -0.03030000     14.71100000     14.07200000    -20.43700000
      2.64950000     65.68880000     -0.01220000     15.09200000     15.09300000    -20.41900000
      2.64950000     65.68880000     -0.01220000     15.52900000     13.38300000    -20.65000000
      3.39970000    359.82400000      0.79940000     13.64700000     13.94700000    -21.52000000
      2.95990000    878.64000000     -0.80140000     12.51300000     13.51000000    -21.22800000
      2.95990000    878.64000000     -0.80140000     13.94100000     14.26800000    -22.68300000
      3.39970000    359.82400000      0.53660000     15.30000000     13.20000000    -18.16800000
      2.95990000    878.64000000     -0.58190000     15.68700000     12.03000000    -18.34600000
      3.25000000    711.28000000     -0.41570000     15.82300000     13.97600000    -17.22500000
      1.06910000     65.68880000      0.27190000     15.59400000     14.95600000    -17.14400000
      3.39970000    457.72960000      0.03370000     16.81900000     13.44100000    -16.35600000
      2.47140000     65.68880000      0.08230000     17.52400000     12.90900000    -16.99500000
      3.39970000    457.72960000     -0.18250000     17.54000000     14.53600000    -15.66300000
      2.64950000     65.68880000      0.06030000     16.84900000     15.07200000    -15.01200000
      2.64950000     65.68880000      0.06030000     18.35000000     14.11700000    -15.06600000
      2.64950000     65.68880000      0.06030000     17.95200000     15.22500000    -16.40100000
      3.39970000    359.82400000      0.59730000     16.26500000     12.42000000    -15.32600000
      2.95990000    878.64000000     -0.56790000     17.01300000     11.62500000    -14.78700000
      3.25000000    711.28000000     -0.41570000     14.94000000     12.42200000    -15.12300000
      1.06910000     65.68880000      0.27190000     14.41900000     13.16800000    -15.56100000
      3.39970000    457.72960000     -0.02750000     14.21100000     11.45300000    -14.31400000
      2.47140000     65.68880000      0.11230000     14.87600000     10.65900000    -13.97500000
      3.39970000    457.72960000     -0.00500000     13.63200000     12.17100000    -13.08000000
      2.64950000     65.68880000      0.03390000     13.09500000     13.06100000    -13.40900000
      2.64950000     65.68880000      0.03390000     12.95900000     11.53100000    -12.50900000
      3.39970000    359.82400000     -0.14150000     14.68500000     12.63500000    -12.13200000
      3.39970000    359.82400000     -0.16380000     15.20400000     11.93400000    -11.09100000
      2.51060000     62.76000000      0.20620000     14.79000000     10.93800000    -10.93600000
      3.25000000    711.28000000     -0.34180000     16.17000000     12.65800000    -10.43800000
      1.06910000     65.68880000      0.34120000     16.71800000     12.36200000     -9.64300000
      3.39970000    359.82400000      0.13800000     16.25100000     13.85800000    -11.03900000
      3.39970000    359.82400000     -0.26010000     17.06600000     14.93300000    -10.72700000
      2.59960000     62.76000000      0.15720000     17.75100000     14.84400000     -9.88400000
      3.39970000    359.82400000     -0.11340000     16.95800000     16.02500000    -11.49000000
      2.59960000     62.76000000      0.14170000     17.58700000     16.88700000    -11.26700000
      3.39970000    359.82400000     -0.19720000     16.08400000     16.09500000    -12.54100000
      2.59960000     62.76000000      0.14470000     16.02900000     16.99100000    -13.15900000
      3.39970000    359.82400000     -0.23870000     15.22400000     15.01000000    -12.86100000
      2.59960000     62.76000000      0.17000000     14.55300000     15.09400000    -13.71600000
      3.39970000    359.82400000      0.12430000     15.31600000     13.88400000    -12.09700000
      3.39970000    359.82400000      0.59730000     13.10000000     10.86000000    -15.19400000
      2.95990000    878.64000000     -0.56790000     11.91800000     11.24500000    -15.11700000
      3.25000000    711.28000000     -0.25480000     13.46000000      9.93200000    -16.07600000
      3.39970000    457.72960000      0.01920000     14.74600000      9.20700000    -16.16900000
      2.47140000     65.68880000      0.03910000     14.89500000      8.63100000    -15.25600000
      2.47140000     65.68880000      0.03910000     15.55400000      9.93100000    -16.27700000
      3.39970000    457.72960000      0.01890000     14.59400000      8.34100000    -17.37400000
      2.64950000     65.68880000      0.02130000     14.63800000      7.30500000    -17.03700000
      2.64950000     65.68880000      0.02130000     15.44000000      8.54500000    -18.03000000
      3.39970000    457.72960000     -0.00700000     13.29800000      8.63700000    -18.06500000
      2.64950000     65.68880000      0.02530000     12.70200000      7.76100000    -18.32300000
      2.64950000     65.68880000      0.02530000     13.56000000      9.17800000    -18.97400000
      3.39970000    457.72960000     -0.02660000     12.49600000      9.55700000    -17.11700000
      2.47140000     65.68880000      0.06410000     12.29000000     10.47900000    -17.66000000
      3.39970000    359.82400000      0.58960000     11.16300000      8.91400000    -16.67100000
      2.95990000    878.64000000     -0.57480000     10.14900000      9.14400000    -17.32900000
      3.25000000    711.28000000     -0.41570000     11.12600000      8.22400000    -15.54100000
      1.06910000     65.68880000      0.27190000     11.98200000      7.96700000    -15.07100000
      3.39970000    457.72960000     -0.03890000      9.82900000      7.70800000    -14.98900000
      2.47140000     65.68880000      0.10070000      9.06500000      7.77800000    -15.76400000
      3.39970000    457.72960000      0.36540000      9.96900000      6.23500000    -14.56800000
      2.47140000     65.68880000      0.00430000     10.70300000      6.18400000    -13.76400000
      3.39970000    457.72960000     -0.24380000      8.61500000      5.62000000    -14.07800000
      2.64950000     65.68880000      0.06420000      7.88000000      5.67100000    -14.88200000
      2.64950000     65.68880000      0.06420000      8.77000000      4.57900000    -13.79300000
      2.64950000     65.68880000      0.06420000      8.25100000      6.18100000    -13.21800000
      3.06650000    880.31360000     -0.67610000     10.39500000      5.52000000    -15.71300000
      1.24730000     41.84000000      0.41020000     10.49500000      4.59100000    -15.49100000
      3.39970000    359.82400000      0.59730000      9.27200000      8.53600000    -13.84300000
      2.95990000    878.64000000     -0.56790000      8.03200000      8.81500000    -13.76100000
      3.25000000    711.28000000     -0.41570000     10.16500000      8.99800000    -13.00000000
      1.06910000     65.68880000      0.27190000     11.13500000      8.75000000    -13.13300000
      3.39970000    457.72960000      0.02130000      9.80200000      9.71000000    -11.80800000
      2.47140000     65.68880000      0.11240000      8.85000000      9.35100000    -11.41700000
      3.39970000    457.72960000     -0.12310000     10.87800000      9.47200000    -10.76100000
      2.47140000     65.68880000      0.11120000     11.87100000      9.66300000    -11.16800000
      2.47140000     65.68880000      0.11120000     10.71900000     10.10000000     -9.88400000
      3.53240000   1181.56160000     -0.31190000     10.90200000      7.72900000    -10.14600000
      1.08900000     51.88160000      0.19330000     11.91200000      7.89500000     -9.29600000
      3.39970000    359.82400000      0.59730000      9.48000000     11.21600000    -12.02500000
      2.95990000    878.64000000     -0.56790000      8.91600000     11.84700000    -11.15900000
      3.25000000    711.28000000     -0.41570000      9.92400000     11.77700000    -13.13600000
      1.06910000     65.68880000      0.27190000     10.35700000     11.20900000    -13.85000000
      3.39970000    457.72960000     -0.02520000      9.81000000     13.19400000    -13.36700000
      2.47140000     65.68880000      0.06980000     10.43300000     13.70000000    -12.62900000
      2.47140000     65.68880000      0.06980000     10.19400000     13.39800000    -14.36700000
      3.39970000    359.82400000      0.59730000      8.40500000     13.72100000    -13.26600000
      2.95990000    878.64000000     -0.56790000      8.20700000     14.78800000    -12.68800000
      3.25000000    711.28000000     -0.41570000      7.45200000     12.94500000    -13.75000000
      1.06910000     65.68880000      0.27190000      7.68600000     12.07500000    -14.20600000
      3.39970000    457.72960000      0.03370000      6.01600000     13.34600000    -13.68400000
      2.47140000     65.68880000      0.08230000      5.86600000     14.24300000    -14.28400000
      3.39970000    457.72960000     -0.18250000      5.16000000     12.21800000    -14.26700000
      2.64950000     65.68880000      0.06030000      5.29300000     11.31500000    -13.67100000
      2.64950000     65.68880000      0.06030000      4.11100000     12.51200000    -14.25100000
      2.64950000     65.68880000      0.06030000      5.46600000     12.02300000    -15.29500000
      3.39970000    359.82400000      0.59730000      5.56900000     13.66000000    -12.27300000
      2.95990000    878.64000000     -0.56790000      4.61900000     14.42100000    -12.08800000
      3.25000000    711.28000000     -0.41570000      6.16100000     12.99900000    -11.26300000
      1.06910000     65.68880000      0.27190000      6.86200000     12.30000000    -11.46400000
      3.39970000    457.72960000      0.03370000      5.75200000     13.18900000     -9.87700000
      2.47140000     65.68880000      0.08230000      4.67000000     13.06000000     -9.84200000
      3.39970000    457.72960000     -0.18250000      6.39900000     12.15000000     -8.95600000
      2.64950000     65.68880000      0.06030000      7.48200000     12.27200000     -8.97400000
      2.64950000     65.68880000      0.06030000      6.03500000     12.28900000     -7.93800000
      2.64950000     65.68880000      0.06030000      6.14100000     11.14800000     -9.30000000
      3.39970000    359.82400000      0.59730000      6.05300000     14.61700000     -9.39600000
      2.95990000    878.64000000     -0.56790000      5.43400000     15.09000000     -8.48900000
      3.25000000    711.28000000     -0.41570000      6.93800000     15.34100000    -10.10400000
      1.06910000     65.68880000      0.27190000      7.43000000     14.88500000    -10.86000000
      3.39970000    457.72960000     -0.02490000      7.22100000     16.74800000     -9.84400000
      2.47140000     65.68880000      0.08430000      7.66700000     16.86200000     -8.85600000
      3.39970000    457.72960000      0.21170000      8.19700000     17.28600000    -10.88400000
      2.47140000     65.68880000      0.03520000      8.54900000     18.26300000    -10.55100000
      2.47140000     65.68880000      0.03520000      9.04100000     16.59900000    -10.95000000
      3.06650000    880.31360000     -0.65460000      7.58500000     17.41300000    -12.17000000
      1.24730000     41.84000000      0.42750000      8.22700000     17.75300000    -12.79800000
      3.39970000    359.82400000      0.59730000      5.96400000     17.61500000     -9.90400000
      2.95990000    878.64000000     -0.56790000      5.94200000     18.73200000     -9.39000000
      3.25000000    711.28000000     -0.41570000      4.94000000     17.13900000    -10.59100000
      1.06910000     65.68880000      0.27190000      4.96000000     16.20700000    -10.97900000
      3.39970000    457.72960000     -0.02520000      3.76400000     17.94200000    -10.80500000
      2.47140000     65.68880000      0.06980000      2.93400000     17.27000000    -11.02500000
      2.47140000     65.68880000      0.06980000      3.55600000     18.48500000     -9.88300000
      3.39970000    359.82400000      0.59730000      3.91100000     18.94200000    -11.94900000
      2.95990000    878.64000000     -0.56790000      2.94000000     19.68100000    -12.22300000
      3.25000000    711.28000000     -0.41570000      5.06300000     19.00900000    -12.63600000
      1.06910000     65.68880000      0.27190000      5.86400000     18.46600000    -12.34800000
      3.39970000    457.72960000     -0.05180000      5.18900000     19.84600000    -13.79700000
      2.47140000     65.68880000      0.09220000      4.59900000     20.75400000    -13.67400000
      3.39970000    457.72960000     -0.11020000      6.65400000     20.23700000    -13.98800000
      2.64950000     65.68880000      0.04570000      7.17900000     19.29200000    -14.12600000
      2.64950000     65.68880000      0.04570000      6.71100000     20.82100000    -14.90700000
      3.39970000    457.72960000      0.35310000      7.30100000     21.01600000    -12.85100000
      2.64950000     65.68880000     -0.03610000      7.20900000     20.46300000    -11.91600000
      3.39970000    457.72960000     -0.41210000      8.74600000     21.20100000    -13.18000000
      2.64950000     65.68880000      0.10000000      8.83800000     21.75400000    -14.11500000
      2.64950000     65.68880000      0.10000000      9.23300000     21.75800000    -12.37900000
      2.64950000     65.68880000      0.10000000      9.22300000     20.22700000    -13.28700000
      3.39970000    457.72960000     -0.41210000      6.62700000     22.37400000    -12.64100000
      2.64950000     65.68880000      0.10000000      5.57500000     22.22400000    -12.39900000
      2.64950000     65.68880000      0.10000000      7.11600000     22.90000000    -11.82100000
      2.64950000     65.68880000      0.10000000      6.70900000     22.96600000    -13.55300000
      3.39970000    359.82400000      0.59730000      4.69800000     19.05800000    -15.01800000
      2.95990000    878.64000000     -0.56790000      5.09400000     17.89600000    -15.16100000
      3.25000000    711.28000000     -0.25480000      3.89800000     19.67000000    -15.90000000
      3.39970000    457.72960000      0.01920000      3.23700000     20.99700000    -15.83500000
      2.47140000     65.68880000      0.03910000      3.95100000     21.75000000    -15.50200000
      2.47140000     65.68880000      0.03910000      2.39900000     20.95900000    -15.13900000
      3.39970000    457.72960000      0.01890000      2.79500000     21.21000000    -17.24800000
      2.64950000     65.68880000      0.02130000      3.58800000     21.71600000    -17.79800000
      2.64950000     65.68880000      0.02130000      1.89800000     21.82900000    -17.25200000
      3.39970000    457.72960000     -0.00700000      2.51000000     19.84600000    -17.82400000
      2.64950000     65.68880000      0.02530000      2.76100000     19.83000000    -18.88500000
      2.64950000     65.68880000      0.02530000      1.46600000     19.56200000    -17.69400000
      3.39970000    457.72960000     -0.02660000      3.41800000     18.87100000    -17.05800000
      2.47140000     65.68880000      0.06410000      2.83700000     18.03500000    -16.66900000
      3.39970000    359.82400000      0.58960000      4.56000000     18.33800000    -17.92500000
      2.95990000    878.64000000     -0.57480000      5.37400000     19.11100000    -18.46200000
      3.25000000    711.28000000     -0.41570000      4.66000000     17.01600000    -18.05300000
      1.06910000     65.68880000      0.27190000      3.98700000     16.35500000    -17.69200000
      3.39970000    457.72960000     -0.05970000      5.82600000     16.49500000    -18.79100000
      2.47140000     65.68880000      0.08690000      6.75700000     16.91900000    -18.41500000
      3.39970000    457.72960000      0.13030000      5.97000000     14.95600000    -18.91100000
      2.64950000     65.68880000      0.01870000      6.86400000     14.72600000    -19.49000000
      3.39970000    457.72960000     -0.32040000      6.08200000     14.34200000    -17.56200000
      2.64950000     65.68880000      0.08820000      5.18800000     14.57100000    -16.98200000
      2.64950000     65.68880000      0.08820000      6.18300000     13.26100000    -17.66100000
      2.64950000     65.68880000      0.08820000      6.95800000     14.74200000    -17.05200000
      3.39970000    457.72960000     -0.04300000      4.84500000     14.40300000    -19.80500000
      2.64950000     65.68880000      0.02360000      4.46500000     13.49800000    -19.33100000
      2.64950000     65.68880000      0.02360000      4.05600000     15.15400000    -19.84000000
      3.39970000    457.72960000     -0.06600000      5.29900000     14.08100000    -21.21600000
      2.64950000     65.68880000      0.01860000      6.08800000     13.33000000    -21.18200000
      2.64950000     65.68880000      0.01860000      4.45600000     13.69600000    -21.79000000
      2.64950000     65.68880000      0.01860000      5.67900000     14.98500000    -21.69100000
      3.39970000    359.82400000      0.59730000      5.85100000     16.93900000    -20.21700000
      2.95990000    878.64000000     -0.56790000      6.91300000     16.95200000    -20.79000000
      3.25000000    711.28000000     -0.41570000      4.69100000     17.14900000    -20.83300000
      1.06910000     65.68880000      0.27190000      3.80400000     17.01600000    -20.36900000
      3.39970000    457.72960000      0.03370000      4.68600000     17.49100000    -22.22700000
      2.47140000     65.68880000      0.08230000      5.26500000     16.73700000    -22.76000000
      3.39970000    457.72960000     -0.18250000      3.26400000     17.51300000    -22.80100000
      2.64950000     65.68880000      0.06030000      2.67400000     18.27000000    -22.28400000
      2.64950000     65.68880000      0.06030000      3.30400000     17.74900000    -23.86400000
      2.64950000     65.68880000      0.06030000      2.80100000     16.53600000    -22.66300000
      3.39970000    359.82400000      0.59730000      5.39000000     18.83500000    -22.44400000
      2.95990000    878.64000000     -0.56790000      5.86200000     19.08700000    -23.54600000
      3.25000000    711.28000000     -0.41570000      5.48800000     19.66100000    -21.38700000
      1.06910000     65.68880000      0.27190000      5.16400000     19.34900000    -20.48300000
      3.39970000    457.72960000     -0.05180000      6.01600000     21.04000000    -21.50600000
      2.47140000     65.68880000      0.09220000      6.10300000     21.31400000    -22.55700000
      3.39970000    457.72960000     -0.11020000      5.08000000     22.02600000    -20.82300000
      2.64950000     65.68880000      0.04570000      5.14900000     21.75000000    -19.77100000
      2.64950000     65.68880000      0.04570000      5.45500000     23.04000000    -20.95800000
      3.39970000    457.72960000      0.35310000      3.61100000     21.95900000    -21.27500000
      2.64950000     65.68880000     -0.03610000      3.23200000     20.95700000    -21.07600000
      3.39970000    457.72960000     -0.41210000      2.75600000     22.98300000    -20.53200000
      2.64950000     65.68880000      0.10000000      3.13500000     23.98600000    -20.73000000
      2.64950000     65.68880000      0.10000000      1.72300000     22.91100000    -20.87300000
      2.64950000     65.68880000      0.10000000      2.79900000     22.78400000    -19.46100000
      3.39970000    457.72960000     -0.41210000      3.48600000     22.14100000    -22.77300000
      2.64950000     65.68880000      0.10000000      4.04100000     21.35300000    -23.28300000
      2.64950000     65.68880000      0.10000000      2.43600000     22.08800000    -23.06000000
      2.64950000     65.68880000      0.10000000      3.89100000     23.11200000    -23.05700000
      3.39970000    359.82400000      0.59730000      7.41600000     21.16400000    -20.90400000
      2.95990000    878.64000000     -0.56790000      8.12800000     22.08900000    -21.22600000
      3.25000000    711.28000000     -0.41570000      7.79800000     20.22200000    -20.06500000
      1.06910000     65.68880000      0.27190000      7.21400000     19.40800000    -19.93700000
      3.39970000    457.72960000     -0.02750000      9.05800000     20.32200000    -19.26800000
      2.47140000     65.68880000      0.11230000      9.61200000     21.21500000    -19.55900000
      3.39970000    457.72960000     -0.00500000      8.74300000     20.41000000    -17.81500000
      2.64950000     65.68880000      0.03390000      7.98700000     19.64400000    -17.64100000
      2.64950000     65.68880000      0.03390000      9.63700000     20.17600000    -17.23700000
      3.39970000    359.82400000     -0.14150000      8.18100000     21.72100000    -17.24300000
      3.39970000    359.82400000     -0.16380000      6.88700000     22.08400000    -17.12800000
      2.51060000     62.76000000      0.20620000      6.16100000     21.35200000    -17.48100000
      3.25000000    711.28000000     -0.34180000      6.76200000     23.34100000    -16.57100000
      1.06910000     65.68880000      0.34120000      5.89600000     23.81200000    -16.35100000
      3.39970000    359.82400000      0.13800000      8.01300000     23.82700000    -16.32600000
      3.39970000    359.82400000     -0.26010000      8.40500000     25.01900000    -15.72700000
      2.59960000     62.76000000      0.15720000      7.63900000     25.68700000    -15.33300000
      3.39970000    359.82400000     -0.11340000      9.77700000     25.28300000    -15.67100000
      2.59960000     62.76000000      0.14170000     10.12400000     26.25600000    -15.32200000
      3.39970000    359.82400000     -0.19720000     10.71400000     24.33000000    -16.05100000
      2.59960000     62.76000000      0.14470000     11.78200000     24.51700000    -15.93500000
      3.39970000    359.82400000     -0.23870000     10.31100000     23.08300000    -16.60200000
      2.59960000     62.76000000      0.17000000     11.07100000     22.32900000    -16.80700000
      3.39970000    359.82400000      0.12430000      8.93800000     22.84800000    -16.76600000
      3.39970000    359.82400000      0.59730000     10.05000000     19.15100000    -19.44000000
      2.95990000    878.64000000     -0.56790000     11.05600000     19.05700000    -18.69900000
      3.25000000    711.28000000     -0.41570000      9.74700000     18.27200000    -20.40500000
      1.06910000     65.68880000      0.27190000      8.86500000     18.34200000    -20.89200000
      3.39970000    457.72960000     -0.02490000     10.62600000     17.16400000    -20.73000000
      2.47140000     65.68880000      0.08430000     10.91900000     16.65300000    -19.81300000
      3.39970000    457.72960000      0.21170000      9.93600000     16.16100000    -21.64700000
      2.47140000     65.68880000      0.03520000      9.41000000     16.64800000    -22.46800000
      2.47140000     65.68880000      0.03520000     10.63100000     15.42400000    -22.04800000
      3.06650000    880.31360000     -0.65460000      9.01100000     15.52400000    -20.81300000
      1.24730000     41.84000000      0.42750000      8.52500000     14.86700000    -21.31700000
      3.39970000    359.82400000      0.59730000     11.93300000     17.57600000    -21.36600000
      2.95990000    878.64000000     -0.56790000     12.93800000     16.99900000    -20.84400000
      3.25000000    711.28000000     -0.34810000     11.88400000     18.67000000    -22.16600000
      1.06910000     65.68880000      0.27640000     11.02500000     19.15000000    -21.93900000
      3.39970000    457.72960000     -0.29030000     12.68000000     19.14400000    -23.38600000
      2.47140000     65.68880000      0.14380000     11.98100000     19.57100000    -24.10500000
      3.39970000    457.72960000     -0.05380000     13.76600000     20.22000000    -23.04400000
      2.64950000     65.68880000      0.04820000     14.67800000     19.67500000    -22.80000000
      2.64950000     65.68880000      0.04820000     13.92400000     20.80200000    -23.95200000
      3.39970000    457.72960000      0.02270000     13.40300000     21.17900000    -21.86800000
      2.64950000     65.68880000      0.01340000     12.35600000     21.45600000    -21.99100000
      2.64950000     65.68880000      0.01340000     13.52300000     20.61400000    -20.94400000
      3.39970000    457.72960000     -0.03920000     14.27300000     22.46200000    -21.80600000
      2.64950000     65.68880000      0.06110000     14.32200000     22.78500000    -20.76600000
      2.64950000     65.68880000      0.06110000     15.27400000     22.20600000    -22.15400000
      3.39970000    457.72960000     -0.01760000     13.71100000     23.59000000    -22.66200000
      1.96000000     65.68880000      0.11210000     12.74900000     23.89600000    -22.25200000
      1.96000000     65.68880000      0.11210000     14.40300000     24.43200000    -22.63200000
      3.25000000    711.28000000     -0.37410000     13.53400000     23.15300000    -24.04900000
      1.06910000     65.68880000      0.33740000     12.89300000     22.37300000    -24.07700000
      1.06910000     65.68880000      0.33740000     13.16100000     23.91500000    -24.59700000
      1.06910000     65.68880000      0.33740000     14.42600000     22.87000000    -24.42900000
      3.39970000    359.82400000      0.84880000     13.25400000     18.10400000    -24.35800000
      2.95990000    878.64000000     -0.82520000     13.36300000     16.92200000    -24.00800000
      2.95990000    878.64000000     -0.82520000     13.40500000     18.37800000    -25.54700000
      3.25000000    711.28000000     -0.20200000    -24.04000000     22.44600000    -16.66100000
      1.06910000     65.68880000      0.31200000    -24.43500000     22.59300000    -15.74300000
      1.06910000     65.68880000      0.31200000    -24.54800000     22.74200000    -17.48200000
      3.39970000    457.72960000     -0.01200000    -22.74100000     23.13400000    -16.76800000
      1.96000000     65.68880000      0.10000000    -22.47100000     23.53500000    -15.79100000
      1.96000000     65.68880000      0.10000000    -22.83100000     23.95100000    -17.48300000
      3.39970000    457.72960000     -0.12100000    -21.78900000     22.06200000    -17.23700000
      2.64950000     65.68880000      0.10000000    -20.95800000     22.02000000    -16.53200000
      2.64950000     65.68880000      0.10000000    -21.41700000     22.35100000    -18.22000000
      3.39970000    457.72960000     -0.11500000    -22.51900000     20.75000000    -17.30400000
      2.64950000     65.68880000      0.10000000    -21.97200000     20.00600000    -16.72400000
      2.64950000     65.68880000      0.10000000    -22.61800000     20.40600000    -18.33300000
      3.39970000    457.72960000      0.10000000    -23.91000000     20.97300000    -16.68900000
      1.96000000     65.68880000      0.10000000    -24.68900000     20.58200000    -17.34300000
      3.39970000    359.82400000      0.52600000    -24.04400000     20.33600000    -15.29700000
      2.95990000    878.64000000     -0.50000000    -23.48500000     20.87000000    -14.32200000
      3.25000000    711.28000000     -0.41570000    -24.81600000     19.24800000    -15.17700000
      1.06910000     65.68880000      0.27190000    -25.38800000     18.92900000    -15.94600000
      3.39970000    457.72960000      0.01430000    -24.94200000     18.56900000    -13.89400000
      2.47140000     65.68880000      0.10480000    -24.74400000     19.26700000    -13.08100000
      3.39970000    457.72960000     -0.20410000    -26.36000000     18.01800000    -13.73100000
      2.64950000     65.68880000      0.07970000    -27.07800000     18.82400000    -13.87900000
      2.64950000     65.68880000      0.07970000    -26.51800000     17.24800000    -14.48600000
      3.39970000    359.82400000      0.71300000    -26.58800000     17.41600000    -12.38000000
      2.95990000    878.64000000     -0.59310000    -25.63500000     17.21800000    -11.62100000
      3.25000000    711.28000000     -0.91910000    -27.80900000     17.14000000    -12.07300000
      1.06910000     65.68880000      0.41960000    -28.02100000     16.73200000    -11.17400000
      1.06910000     65.68880000      0.41960000    -28.54800000     17.33300000    -12.73300000
      3.39970000    359.82400000      0.59730000    -23.84200000     17.53000000    -13.83300000
      2.95990000    878.64000000     -0.56790000    -24.04800000     16.39600000    -14.26800000
      3.25000000    711.28000000     -0.41570000    -22.62900000     17.96800000    -13.45600000
      1.06910000     65.68880000      0.27190000    -22.48200000     18.95400000    -13.29200000
      3.39970000    457.72960000     -0.02750000    -21.49800000     17.07300000    -13.31800000
      2.47140000     65.68880000      0.11230000    -21.36000000     16.51000000    -14.24100000
      3.39970000    457.72960000     -0.00500000    -20.20900000     17.86600000    -13.02800000
      2.64950000     65.68880000      0.03390000    -20.42000000     18.54800000    -12.20400000
      2.64950000     65.68880000      0.03390000    -19.36600000     17.22700000    -12.76400000
      3.39970000    359.82400000     -0.14150000    -19.75100000     18.73000000    -14.20500000
      3.39970000    359.82400000     -0.16380000    -19.73600000     20.12700000    -14.25700000
      2.51060000     62.76000000      0.20620000    -20.04200000     20.66100000    -13.35700000
      3.25000000    711.28000000     -0.34180000    -19.31300000     20.54800000    -15.50700000
      1.06910000     65.68880000      0.34120000    -19.24700000     21.50400000    -15.82600000
      3.39970000    359.82400000      0.13800000    -19.02300000     19.42400000    -16.26600000
      3.39970000    359.82400000     -0.26010000    -18.56200000     19.33100000    -17.54700000
      2.59960000     62.76000000      0.15720000    -18.38100000     20.26400000    -18.08000000
      3.39970000    359.82400000     -0.11340000    -18.35300000     18.07600000    -18.09100000
      2.59960000     62.76000000      0.14170000    -17.96300000     17.97300000    -19.10400000
      3.39970000    359.82400000     -0.19720000    -18.64500000     16.89400000    -17.33500000
      2.59960000     62.76000000      0.14470000    -18.49800000     15.90000000    -17.75800000
      3.39970000    359.82400000     -0.23870000    -19.11800000     16.98300000    -16.05700000
      2.59960000     62.76000000      0.17000000    -19.29400000     16.05600000    -15.51100000
      3.39970000    359.82400000      0.12430000    -19.32000000     18.27000000    -15.48400000
      3.39970000    359.82400000      0.59730000    -21.73800000     16.06000000    -12.21200000
      2.95990000    878.64000000     -0.56790000    -21.13500000     14.95500000    -12.23700000
      3.25000000    711.28000000     -0.51630000    -22.62700000     16.35000000    -11.24200000
      1.06910000     65.68880000      0.29360000    -22.99000000     17.28500000    -11.12400000
      3.39970000    457.72960000      0.03810000    -22.97700000     15.31500000    -10.21200000
      2.47140000     65.68880000      0.08800000    -22.06000000     14.86300000     -9.83400000
      3.39970000    457.72960000     -0.03030000    -23.72900000     15.90700000     -9.05900000
      2.64950000     65.68880000     -0.01220000    -24.64400000     16.41800000     -9.35900000
      2.64950000     65.68880000     -0.01220000    -23.98200000     15.02800000     -8.46600000
      3.39970000    359.82400000      0.79940000    -22.88800000     16.83200000     -8.24400000
      2.95990000    878.64000000     -0.80140000    -21.80000000     16.49200000     -7.84300000
      2.95990000    878.64000000     -0.80140000    -23.24200000     17.99700000     -8.07600000
      3.39970000    359.82400000      0.53660000    -23.71900000     14.12500000    -10.88600000
      2.95990000    878.64000000     -0.58190000    -23.42500000     12.97300000    -10.61100000
      3.25000000    711.28000000     -0.41570000    -24.62900000     14.43500000    -11.80500000
      1.06910000     65.68880000      0.27190000    -24.93100000     15.39200000    -11.91800000
      3.39970000    457.72960000      0.03370000    -25.30300000     13.40600000    -12.57500000
      2.47140000     65.68880000      0.08230000    -25.69700000     12.70300000    -11.84100000
      3.39970000    457.72960000     -0.18250000    -26.45600000     14.00100000    -13.33900000
      2.64950000     65.68880000      0.06030000    -26.07700000     14.70000000    -14.08400000
      2.64950000     65.68880000      0.06030000    -27.01100000     13.20600000    -13.83700000
      2.64950000     65.68880000      0.06030000    -27.11600000     14.52800000    -12.65000000
      3.39970000    359.82400000      0.59730000    -24.36700000     12.60900000    -13.50400000
      2.95990000    878.64000000     -0.56790000    -24.49000000     11.37500000    -13.58200000
      3.25000000    711.28000000     -0.41570000    -23.41700000     13.27000000    -14.15800000
      1.06910000     65.68880000      0.27190000    -23.39900000     14.27800000    -14.10200000
      3.39970000    457.72960000     -0.08750000    -22.41900000     12.60600000    -14.98900000
      2.47140000     65.68880000      0.09690000    -22.90900000     11.95100000    -15.70900000
      3.39970000    457.72960000      0.29850000    -21.51100000     13.59300000    -15.75700000
      2.64950000     65.68880000     -0.02970000    -21.02100000     14.25300000    -15.04100000
      3.39970000    457.72960000     -0.31920000    -20.45900000     12.84100000    -16.55400000
      2.64950000     65.68880000      0.07910000    -20.94800000     12.18100000    -17.27000000
      2.64950000     65.68880000      0.07910000    -19.82900000     13.55300000    -17.08800000
      2.64950000     65.68880000      0.07910000    -19.84400000     12.24900000    -15.87700000
      3.39970000    457.72960000     -0.31920000    -22.32200000     14.50000000    -16.71100000
      2.64950000     65.68880000      0.07910000    -23.04500000     15.07900000    -16.13600000
      2.64950000     65.68880000      0.07910000    -21.64500000     15.17800000    -17.23100000
      2.64950000     65.68880000      0.07910000    -22.84800000     13.88300000    -17.44000000
      3.39970000    359.82400000      0.59730000    -21.55500000     11.70300000    -14.08500000
      2.95990000    878.64000000     -0.56790000    -21.20800000     10.56100000    -14.43900000
      3.25000000    711.28000000     -0.41570000    -21.15300000     12.23600000    -12.91700000
      1.06910000     65.68880000      0.27190000    -21.26200000     13.21800000    -12.70500000
      3.39970000    457.72960000      0.03370000    -20.34800000     11.37800000    -11.95800000
      2.47140000     65.68880000      0.08230000    -19.53700000     10.99500000    -12.57700000
      3.39970000    457.72960000     -0.18250000    -19.74700000     12.21700000    -10.83000000
      2.64950000     65.68880000      0.06030000    -20.54600000     12.60000000    -10.19600000
      2.64950000     65.68880000      0.06030000    -19.07600000     11.59800000    -10.23400000
      2.64950000     65.68880000      0.06030000    -19.18900000     13.05200000    -11.25500000
      3.39970000    359.82400000      0.59730000    -21.09300000     10.18000000    -11.42900000
      2.95990000    878.64000000     -0.56790000    -20.46300000      9.11200000    -11.22900000
      3.25000000    711.28000000     -0.41570000    -22.41700000     10.28500000    -11.18400000
      1.06910000     65.68880000      0.27190000    -22.85900000     11.19300000    -11.19900000
      3.39970000    457.72960000     -0.00310000    -23.21100000      9.15100000    -10.83200000
      2.47140000     65.68880000      0.08500000    -22.83500000      8.71100000     -9.90800000
      3.39970000    457.72960000     -0.00360000    -24.67600000      9.56100000    -10.62000000
      2.64950000     65.68880000      0.01710000    -24.66500000     10.26200000     -9.78500000
      2.64950000     65.68880000      0.01710000    -24.96700000     10.08600000    -11.53000000
      3.39970000    457.72960000     -0.06450000    -25.68900000      8.43200000    -10.33100000
      2.64950000     65.68880000      0.03520000    -26.64600000      8.88300000    -10.06900000
      2.64950000     65.68880000      0.03520000    -25.80600000      7.83100000    -11.23300000
      3.39970000    359.82400000      0.69510000    -25.25600000      7.52700000     -9.20100000
      2.95990000    878.64000000     -0.60860000    -24.74100000      7.98500000     -8.19600000
      3.25000000    711.28000000     -0.94070000    -25.46900000      6.25000000     -9.37700000
      1.06910000     65.68880000      0.42510000    -25.20200000      5.59300000     -8.65800000
      1.06910000     65.68880000      0.42510000    -25.90000000      5.92600000    -10.23100000
      3.39970000    359.82400000      0.59730000    -23.07100000      8.07500000    -11.93300000
      2.95990000    878.64000000     -0.56790000    -22.89000000      6.86100000    -11.64500000
      3.25000000    711.28000000     -0.41570000    -23.11600000      8.51100000    -13.18800000
      1.06910000     65.68880000      0.27190000    -23.31200000      9.48600000    -13.36500000
      3.39970000    457.72960000      0.02130000    -22.99100000      7.59300000    -14.35400000
      2.47140000     65.68880000      0.11240000    -23.69200000      6.76200000    -14.27100000
      3.39970000    457.72960000     -0.12310000    -23.32000000      8.39100000    -15.64100000
      2.47140000     65.68880000      0.11120000    -24.25800000      8.92600000    -15.49400000
      2.47140000     65.68880000      0.11120000    -22.51900000      9.10700000    -15.82600000
      3.53240000   1181.56160000     -0.31190000    -23.51000000      7.47200000    -17.13800000
      1.08900000     51.88160000      0.19330000    -23.76800000      8.52100000    -17.91400000
      3.39970000    359.82400000      0.59730000    -21.66900000      6.90400000    -14.47300000
      2.95990000    878.64000000     -0.56790000    -21.60600000      5.69500000    -14.71700000
      3.25000000    711.28000000     -0.51630000    -20.62000000      7.70100000    -14.31600000
      1.06910000     65.68880000      0.29360000    -20.78300000      8.66400000    -14.05900000
      3.39970000    457.72960000      0.03970000    -19.28300000      7.28000000    -14.53400000
      2.47140000     65.68880000      0.11050000    -19.23600000      6.65400000    -15.42500000
      3.39970000    457.72960000      0.05600000    -18.35500000      8.49200000    -14.73500000
      2.64950000     65.68880000     -0.01730000    -18.61600000      9.18100000    -13.93200000
      2.64950000     65.68880000     -0.01730000    -17.34900000      8.10500000    -14.57000000
      3.39970000    457.72960000      0.01360000    -18.40400000      9.23700000    -16.08800000
      2.64950000     65.68880000     -0.04250000    -19.36600000      9.70200000    -16.30200000
      2.64950000     65.68880000     -0.04250000    -17.66700000     10.01100000    -15.87400000
      3.39970000    359.82400000      0.80540000    -17.95400000      8.42900000    -17.29200000
      2.95990000    878.64000000     -0.81880000    -17.43800000      7.29600000    -17.14500000
      2.95990000    878.64000000     -0.81880000    -18.29700000      8.85800000    -18.41900000
      3.39970000    359.82400000      0.53660000    -18.71100000      6.42600000    -13.40700000
      2.95990000    878.64000000     -0.58190000    -18.05100000      5.48100000    -13.69100000
      3.25000000    711.28000000     -0.41570000    -18.94900000      6.80700000    -12.17400000
      1.06910000     65.68880000      0.27190000    -19.60500000      7.56000000    -12.02400000
      3.39970000    457.72960000     -0.02490000    -18.30800000      6.22200000    -11.02600000
      2.47140000     65.68880000      0.08430000    -17.73300000      5.34200000    -11.31500000
      3.39970000    457.72960000      0.21170000    -17.33800000      7.26700000    -10.40200000
      2.47140000     65.68880000      0.03520000    -16.76700000      6.77500000     -9.61400000
      2.47140000     65.68880000      0.03520000    -16.65800000      7.61000000    -11.18200000
      3.06650000    880.31360000     -0.65460000    -18.05200000      8.41000000     -9.84300000
      1.24730000     41.84000000      0.42750000    -17.42100000      9.03000000     -9.46900000
      3.39970000    359.82400000      0.59730000    -19.25500000      5.75900000     -9.93600000
      2.95990000    878.64000000     -0.56790000    -18.81900000      5.40100000     -8.84300000
      3.25000000    711.28000000     -0.41570000    -20.58000000      5.92000000    -10.09800000
      1.06910000     65.68880000      0.27190000    -20.96800000      6.17600000    -10.99500000
      3.39970000    457.72960000     -0.02520000    -21.49700000      5.72800000     -8.97400000
      2.47140000     65.68880000      0.06980000    -22.50500000      5.65800000     -9.38200000
      2.47140000     65.68880000      0.06980000    -21.23400000      4.78600000     -8.49400000
      3.39970000    359.82400000      0.59730000    -21.45900000      6.84800000     -7.92900000
      2.95990000    878.64000000     -0.56790000    -21.78800000      6.61300000     -6.81000000
      3.25000000    711.28000000     -0.41570000    -20.97500000      8.01900000     -8.31300000
      1.06910000     65.68880000      0.27190000    -20.66600000      8.11600000     -9.27000000
      3.39970000    457.72960000     -0.02520000    -20.86600000      9.16000000     -7.44200000
      2.47140000     65.68880000      0.06980000    -20.75500000     10.04800000     -8.06400000
      2.47140000     65.68880000      0.06980000    -21.78900000      9.23300000     -6.86700000
      3.39970000    359.82400000      0.59730000    -19.67500000      9.07700000     -6.46900000
      2.95990000    878.64000000     -0.56790000    -19.70100000      9.70900000     -5.41000000
      3.25000000    711.28000000     -0.41570000    -18.66000000      8.32200000     -6.80300000
      1.06910000     65.68880000      0.27190000    -18.66300000      7.79800000     -7.66700000
      3.39970000    457.72960000      0.01430000    -17.49000000      8.18800000     -5.90500000
      2.47140000     65.68880000      0.10480000    -17.76800000      8.49600000     -4.89700000
      3.39970000    457.72960000     -0.20410000    -17.01100000      6.78600000     -5.85700000
      2.64950000     65.68880000      0.07970000    -17.78300000      6.13900000     -5.44000000
      2.64950000     65.68880000      0.07970000    -16.76800000      6.45600000     -6.86700000
      3.39970000    359.82400000      0.71300000    -15.75600000      6.67200000     -4.99000000
      2.95990000    878.64000000     -0.59310000    -15.35600000      7.66000000     -4.33800000
      3.25000000    711.28000000     -0.91910000    -15.19100000      5.55300000     -4.97600000
      1.06910000     65.68880000      0.41960000    -14.35800000      5.41800000     -4.42100000
      1.06910000     65.68880000      0.41960000    -15.57200000      4.79200000     -5.52000000
      3.39970000    359.82400000      0.59730000    -16.34700000      9.12700000     -6.41000000
      2.95990000    878.64000000     -0.56790000    -15.64700000      8.83500000     -7.43900000
      3.25000000    711.28000000     -0.41570000    -16.25400000     10.28700000     -5.84100000
      1.06910000     65.68880000      0.27190000    -16.84100000     10.50500000     -5.04900000
      3.39970000    457.72960000     -0.02750000    -15.35000000     11.35200000     -6.36500000
      2.47140000     65.68880000      0.11230000    -15.49500000     11.42300000     -7.44300000
      3.39970000    457.72960000     -0.00500000    -15.61400000     12.78200000     -5.72100000
      2.64950000     65.68880000      0.03390000    -15.83300000     12.57800000     -4.67300000
      2.64950000     65.68880000      0.03390000    -14.82400000     13.53000000     -5.78800000
      3.39970000    359.82400000     -0.14150000    -16.85200000     13.40900000     -6.30500000
      3.39970000    359.82400000     -0.16380000    -18.09000000     13.32700000     -5.76200000
      2.51060000     62.76000000      0.20620000    -18.20100000     12.81200000     -4.80800000
      3.25000000    711.28000000     -0.34180000    -18.98400000     13.95700000     -6.59900000
      1.06910000     65.68880000      0.34120000    -19.93100000     14.19300000     -6.33800000
      3.39970000    359.82400000      0.13800000    -18.36900000     14.33400000     -7.73900000
      3.39970000    359.82400000     -0.26010000    -18.87400000     14.99900000     -8.81700000
      2.59960000     62.76000000      0.15720000    -19.93800000     15.23700000     -8.81500000
      3.39970000    359.82400000     -0.11340000    -18.04000000     15.31800000     -9.80700000
      2.59960000     62.76000000      0.14170000    -18.40900000     15.83400000    -10.69400000
      3.39970000    359.82400000     -0.19720000    -16.64100000     14.98800000     -9.72300000
      2.59960000     62.76000000      0.14470000    -15.93900000     15.24300000    -10.51700000
      3.39970000    359.82400000     -0.23870000    -16.15800000     14.33800000     -8.62700000
      2.59960000     62.76000000      0.17000000    -15.12400000     13.99300000     -8.65500000
      3.39970000    359.82400000      0.12430000    -17.01300000     14.05600000     -7.58800000
      3.39970000    359.82400000      0.59730000    -13.90600000     10.94700000     -6.14600000
      2.95990000    878.64000000     -0.56790000    -12.97300000     11.47800000     -6.76400000
      3.25000000    711.28000000     -0.41570000    -13.69100000      9.99900000     -5.24900000
      1.06910000     65.68880000      0.27190000    -14.45200000      9.71000000     -4.65100000
      3.39970000    457.72960000      0.03370000    -12.33600000      9.40300000     -5.01200000
      2.47140000     65.68880000      0.08230000    -11.61600000     10.12500000     -5.39800000
      3.39970000    457.72960000     -0.18250000    -12.10400000      9.23600000     -3.51200000
      2.64950000     65.68880000      0.06030000    -12.81200000      8.51000000     -3.11300000
      2.64950000     65.68880000      0.06030000    -11.08700000      8.88500000     -3.33800000
      2.64950000     65.68880000      0.06030000    -12.24700000     10.19400000     -3.01300000
      3.39970000    359.82400000      0.59730000    -12.09100000      8.07000000     -5.74500000
      2.95990000    878.64000000     -0.56790000    -11.15200000      7.33400000     -5.41900000
      3.25000000    711.28000000     -0.41570000    -12.91100000      7.74500000     -6.73000000
      1.06910000     65.68880000      0.27190000    -13.66500000      8.34800000     -7.02600000
      3.39970000    457.72960000      0.03370000    -12.75700000      6.42700000     -7.40300000
      2.47140000     65.68880000      0.08230000    -12.96800000      5.67200000     -6.64600000
      3.39970000    457.72960000     -0.18250000    -13.77100000      6.29300000     -8.51400000
      2.64950000     65.68880000      0.06030000    -13.56700000      7.03700000     -9.28400000
      2.64950000     65.68880000      0.06030000    -13.70700000      5.29500000     -8.94700000
      2.64950000     65.68880000      0.06030000    -14.77200000      6.45100000     -8.11400000
      3.39970000    359.82400000      0.59730000    -11.36900000      6.14900000     -8.00200000
      2.95990000    878.64000000     -0.56790000    -10.80700000      6.98000000     -8.72000000
      3.25000000    711.28000000     -0.41570000    -10.79600000      4.98400000     -7.64400000
      1.06910000     65.68880000      0.27190000    -11.24900000      4.42200000     -6.93700000
      3.39970000    457.72960000      0.01430000     -9.51700000      4.53600000     -8.16500000
      2.47140000     65.68880000      0.10480000     -9.43500000      4.80600000     -9.21800000
      3.39970000    457.72960000     -0.20410000     -8.35000000      5.19200000     -7.39500000
      2.64950000     65.68880000      0.07970000     -8.43800000      6.27800000     -7.39600000
      2.64950000     65.68880000      0.07970000     -8.40200000      4.82500000     -6.37000000
      3.39970000    359.82400000      0.71300000     -6.97400000      4.80600000     -7.98900000
      2.95990000    878.64000000     -0.59310000     -6.87100000      4.12300000     -9.02200000
      3.25000000    711.28000000     -0.91910000     -5.93600000      5.28500000     -7.37400000
      1.06910000     65.68880000      0.41960000     -5.00900000      5.07000000     -7.71200000
      1.06910000     65.68880000      0.41960000     -6.06000000      5.87000000     -6.56000000
      3.39970000    359.82400000      0.59730000     -9.43800000      3.04400000     -8.11600000
      2.95990000    878.64000000     -0.56790000     -8.86600000      2.50000000     -7.19300000
      3.25000000    711.28000000     -0.41570000    -10.09600000      2.37100000     -9.08100000
      1.06910000     65.68880000      0.27190000    -10.39600000      2.82400000     -9.93300000
      3.39970000    457.72960000     -0.03890000    -10.41500000      0.98600000     -8.89900000
      2.47140000     65.68880000      0.10070000    -10.36500000      0.71600000     -7.84400000
      3.39970000    457.72960000      0.36540000    -11.85300000      0.69200000     -9.42100000
      2.47140000     65.68880000      0.00430000    -12.02400000     -0.38400000     -9.38000000
      3.39970000    457.72960000     -0.24380000    -12.87400000      1.38600000     -8.60300000
      2.64950000     65.68880000      0.06420000    -12.70300000      2.46200000     -8.64400000
      2.64950000     65.68880000      0.06420000    -13.86700000      1.16100000     -8.99300000
      2.64950000     65.68880000      0.06420000    -12.80400000      1.04700000     -7.56900000
      3.06650000    880.31360000     -0.67610000    -11.94800000      1.13800000    -10.80500000
      1.24730000     41.84000000      0.41020000    -12.83100000      0.96200000    -11.13800000
      3.39970000    359.82400000      0.59730000     -9.37200000      0.14600000     -9.65900000
      2.95990000    878.64000000     -0.56790000     -9.43900000     -1.06000000     -9.63200000
      3.25000000    711.28000000     -0.41570000     -8.47000000      0.79000000    -10.41700000
      1.06910000     65.68880000      0.27190000     -8.44900000      1.80000000    -10.41300000
      3.39970000    457.72960000     -0.02520000     -7.50400000      0.07800000    -11.25900000
      2.47140000     65.68880000      0.06980000     -6.57400000      0.64700000    -11.23900000
      2.47140000     65.68880000      0.06980000     -7.34000000     -0.90100000    -10.80900000
      3.39970000    359.82400000      0.59730000     -7.93700000     -0.10800000    -12.69700000
      2.95990000    878.64000000     -0.56790000     -7.31200000     -0.88800000    -13.43800000
      3.25000000    711.28000000     -0.41570000     -8.98100000      0.59200000    -13.14100000
      1.06910000     65.68880000      0.27190000     -9.47000000      1.24400000    -12.54500000
      3.39970000    457.72960000      0.01430000     -9.43300000      0.44500000    -14.53400000
      2.47140000     65.68880000      0.10480000     -9.15300000     -0.53600000    -14.91700000
      3.39970000    457.72960000     -0.20410000    -10.94200000      0.58000000    -14.60300000
      2.64950000     65.68880000      0.07970000    -11.18300000      0.49000000    -15.66200000
      2.64950000     65.68880000      0.07970000    -11.46600000     -0.19600000    -14.04400000
      3.39970000    359.82400000      0.71300000    -11.42200000      1.95400000    -14.10500000
      2.95990000    878.64000000     -0.59310000    -10.65300000      2.79300000    -13.59500000
      3.25000000    711.28000000     -0.91910000    -12.68900000      2.14300000    -14.15500000
      1.06910000     65.68880000      0.41960000    -13.07800000      3.02200000    -13.84500000
      1.06910000     65.68880000      0.41960000    -13.29200000      1.41200000    -14.50500000
      3.39970000    359.82400000      0.59730000     -8.84300000      1.51100000    -15.41200000
      2.95990000    878.64000000     -0.56790000     -9.37300000      1.74100000    -16.49500000
      3.25000000    711.28000000     -0.41570000     -7.77900000      2.20100000    -14.96700000
      1.06910000     65.68880000      0.27190000     -7.42000000      2.07900000    -14.03100000
      3.39970000    457.72960000     -0.02520000     -7.11600000      3.14900000    -15.83900000
      2.47140000     65.68880000      0.06980000     -6.08000000      3.24300000    -15.51400000
      2.47140000     65.68880000      0.06980000     -7.14400000      2.75400000    -16.85500000
      3.39970000    359.82400000      0.59730000     -7.77000000      4.53400000    -15.82500000
      2.95990000    878.64000000     -0.56790000     -7.33000000      5.41700000    -16.56900000
      3.25000000    711.28000000     -0.34790000     -8.83800000      4.68500000    -15.03300000
      1.06910000     65.68880000      0.27470000     -9.18300000      3.88000000    -14.53100000
      3.39970000    457.72960000     -0.24000000     -9.55800000      5.92400000    -14.91200000
      2.47140000     65.68880000      0.14260000     -8.99100000      6.71400000    -15.40400000
      3.39970000    457.72960000     -0.00940000    -10.94000000      5.84600000    -15.55000000
      2.64950000     65.68880000      0.03620000    -11.52500000      5.16300000    -14.93400000
      2.64950000     65.68880000      0.03620000    -11.36600000      6.84700000    -15.48600000
      3.39970000    457.72960000      0.01870000    -10.96800000      5.37100000    -17.00800000
      2.64950000     65.68880000      0.01030000    -10.47900000      6.11200000    -17.64000000
      2.64950000     65.68880000      0.01030000    -10.44100000      4.42000000    -17.08900000
      3.39970000    457.72960000     -0.04790000    -12.43100000      5.18900000    -17.46700000
      2.64950000     65.68880000      0.06210000    -13.00600000      4.95600000    -16.57100000
      2.64950000     65.68880000      0.06210000    -12.75000000      6.15300000    -17.86300000
      3.39970000    457.72960000     -0.01430000    -12.66000000      4.12500000    -18.49900000
      1.96000000     65.68880000      0.11350000    -12.98100000      4.61700000    -19.41700000
      1.96000000     65.68880000      0.11350000    -11.71000000      3.62000000    -18.67100000
      3.25000000    711.28000000     -0.38540000    -13.71000000      3.10200000    -18.07600000
      1.06910000     65.68880000      0.34000000    -14.59100000      3.57000000    -17.91700000
      1.06910000     65.68880000      0.34000000    -13.82200000      2.41300000    -18.80600000
      1.06910000     65.68880000      0.34000000    -13.41200000      2.64600000    -17.22500000
      3.39970000    359.82400000      0.73410000     -9.68000000      6.33200000    -13.42900000
      2.95990000    878.64000000     -0.58940000     -9.53900000      5.51500000    -12.51700000
      3.25000000    711.28000000     -0.41570000     -9.92300000      7.61100000    -13.22300000
      1.06910000     65.68880000      0.27190000    -10.16000000      8.20400000    -14.00500000
      3.39970000    457.72960000     -0.00140000     -9.72500000      8.23300000    -11.91900000
      2.47140000     65.68880000      0.08760000     -9.89700000      7.49600000    -11.13500000
      3.39970000    457.72960000     -0.01520000     -8.25100000      8.79300000    -11.77200000
      2.64950000     65.68880000      0.02950000     -8.19500000      9.59500000    -12.50800000
      2.64950000     65.68880000      0.02950000     -8.12100000      9.20800000    -10.77200000
      3.39970000    359.82400000     -0.00110000     -7.14500000      7.76900000    -12.04800000
      3.39970000    359.82400000     -0.19060000     -6.70300000      7.53700000    -13.33700000
      2.59960000     62.76000000      0.16990000     -7.13600000      8.11100000    -14.15700000
      3.39970000    359.82400000     -0.23410000     -5.70800000      6.57500000    -13.59900000
      2.59960000     62.76000000      0.16560000     -5.28400000      6.46300000    -14.59700000
      3.39970000    359.82400000      0.32260000     -5.18400000      5.83300000    -12.52400000
      3.06650000    880.31360000     -0.55790000     -4.34600000      4.88900000    -12.82200000
      1.24730000     41.84000000      0.39920000     -4.18500000      4.81400000    -13.76500000
      3.39970000    359.82400000     -0.23410000     -5.63500000      6.03800000    -11.24700000
      2.59960000     62.76000000      0.16560000     -5.23000000      5.44800000    -10.42500000
      3.39970000    359.82400000     -0.19060000     -6.60000000      6.98900000    -11.00200000
      2.59960000     62.76000000      0.16990000     -6.95800000      7.15200000     -9.98600000
      3.39970000    359.82400000      0.59730000    -10.71900000      9.28800000    -11.55500000
      2.95990000    878.64000000     -0.56790000    -11.06400000     10.16800000    -12.37600000
      3.25000000    711.28000000     -0.41570000    -11.20900000      9.21700000    -10.32600000
      1.06910000     65.68880000      0.27190000    -10.95500000      8.43000000     -9.74600000
      3.39970000    457.72960000     -0.02520000    -12.08500000     10.20700000     -9.77900000
      2.47140000     65.68880000      0.06980000    -12.05600000     10.12800000     -8.69200000
      2.47140000     65.68880000      0.06980000    -11.72400000     11.19000000    -10.08200000
      3.39970000    359.82400000      0.59730000    -13.51100000     10.04300000    -10.24500000
      2.95990000    878.64000000     -0.56790000    -13.89500000      9.04000000    -10.89600000
      3.25000000    711.28000000     -0.41570000    -14.32500000     11.00400000     -9.84000000
      1.06910000     65.68880000      0.27190000    -13.97800000     11.85500000     -9.42000000
      3.39970000    457.72960000     -0.02520000    -15.83000000     10.84100000    -10.00300000
      2.47140000     65.68880000      0.06980000    -16.13400000      9.89700000     -9.55200000
      2.47140000     65.68880000      0.06980000    -16.33200000     11.66400000     -9.49500000
      3.39970000    359.82400000      0.59730000    -16.23900000     10.84300000    -11.48000000
      2.95990000    878.64000000     -0.56790000    -17.27300000     10.27400000    -11.85000000
      3.25000000    711.28000000     -0.41570000    -15.46600000     11.54000000    -12.30300000
      1.06910000     65.68880000      0.27190000    -14.70200000     12.07000000    -11.90900000
      3.39970000    457.72960000     -0.05180000    -15.75800000     11.69700000    -13.73700000
      2.47140000     65.68880000      0.09220000    -16.77500000     11.35600000    -13.93300000
      3.39970000    457.72960000     -0.11020000    -15.63500000     13.15300000    -14.19000000
      2.64950000     65.68880000      0.04570000    -14.59700000     13.42900000    -14.00400000
      2.64950000     65.68880000      0.04570000    -15.83800000     13.20300000    -15.26000000
      3.39970000    457.72960000      0.35310000    -16.56700000     14.12700000    -13.44500000
      2.64950000     65.68880000     -0.03610000    -16.49300000     13.96300000    -12.37000000
      3.39970000    457.72960000     -0.41210000    -16.15200000     15.52000000    -13.76300000
      2.64950000     65.68880000      0.10000000    -16.22600000     15.68500000    -14.83800000
      2.64950000     65.68880000      0.10000000    -16.80300000     16.22200000    -13.24200000
      2.64950000     65.68880000      0.10000000    -15.12200000     15.67500000    -13.44200000
      3.39970000    457.72960000     -0.41210000    -18.05800000     13.90100000    -13.83300000
      2.64950000     65.68880000      0.10000000    -18.35000000     12.88200000    -13.57800000
      2.64950000     65.68880000      0.10000000    -18.68700000     14.60600000    -13.28800000
      2.64950000     65.68880000      0.10000000    -18.18300000     14.05700000    -14.90500000
      3.39970000    359.82400000      0.59730000    -14.90200000     10.73300000    -14.58600000
      2.95990000    878.64000000     -0.56790000    -14.94800000     10.76300000    -15.81400000
      3.25000000    711.28000000     -0.41570000    -14.17500000      9.84000000    -13.91000000
      1.06910000     65.68880000      0.27190000    -14.06300000      9.95800000    -12.91300000
      3.39970000    457.72960000     -0.00310000    -13.40200000      8.79600000    -14.57500000
      2.47140000     65.68880000      0.08500000    -12.69600000      8.34100000    -13.88000000
      3.39970000    457.72960000     -0.00360000    -14.36500000      7.70800000    -15.08100000
      2.64950000     65.68880000      0.01710000    -15.16600000      8.17100000    -15.65800000
      2.64950000     65.68880000      0.01710000    -13.82100000      7.00700000    -15.71400000
      3.39970000    457.72960000     -0.06450000    -14.95100000      6.97500000    -13.91200000
      2.64950000     65.68880000      0.03520000    -15.35200000      7.68600000    -13.19000000
      2.64950000     65.68880000      0.03520000    -15.76000000      6.35500000    -14.29900000
      3.39970000    359.82400000      0.69510000    -13.96200000      6.09200000    -13.21600000
      2.95990000    878.64000000     -0.60860000    -13.40500000      6.42000000    -12.11700000
      3.25000000    711.28000000     -0.94070000    -13.75100000      4.98000000    -13.78300000
      1.06910000     65.68880000      0.42510000    -13.09700000      4.32600000    -13.37700000
      1.06910000     65.68880000      0.42510000    -14.23800000      4.75200000    -14.63800000
      3.39970000    359.82400000      0.59730000    -12.46000000      9.28900000    -15.64500000
      2.95990000    878.64000000     -0.56790000    -12.45600000      8.79800000    -16.78900000
      3.25000000    711.28000000     -0.41570000    -11.58300000     10.23800000    -15.27600000
      1.06910000     65.68880000      0.27190000    -11.51800000     10.50500000    -14.30400000
      3.39970000    457.72960000     -0.00240000    -10.63000000     10.85000000    -16.24100000
      2.47140000     65.68880000      0.09780000    -11.16300000     11.16500000    -17.13800000
      3.39970000    457.72960000     -0.03430000     -9.94300000     12.09100000    -15.61000000
      2.64950000     65.68880000      0.02950000     -9.96200000     11.94700000    -14.53000000
      2.64950000     65.68880000      0.02950000     -8.91200000     12.21700000    -15.94100000
      3.39970000    359.82400000      0.01180000    -10.64900000     13.40200000    -15.88500000
      3.39970000    359.82400000     -0.12560000    -10.46400000     14.05500000    -17.10900000
      2.59960000     62.76000000      0.13300000     -9.82900000     13.60100000    -17.87000000
      3.39970000    359.82400000     -0.17040000    -11.08800000     15.28500000    -17.36000000
      2.59960000     62.76000000      0.14300000    -10.94500000     15.78900000    -18.31600000
      3.39970000    359.82400000     -0.10720000    -11.89800000     15.86600000    -16.37700000
      2.59960000     62.76000000      0.12970000    -12.39800000     16.81500000    -16.57100000
      3.39970000    359.82400000     -0.17040000    -12.06500000     15.22700000    -15.14400000
      2.59960000     62.76000000      0.14300000    -12.69300000     15.67600000    -14.37400000
      3.39970000    359.82400000     -0.12560000    -11.43000000     14.02100000    -14.90300000
      2.59960000     62.76000000      0.13300000    -11.53300000     13.53500000    -13.93300000
      3.39970000    359.82400000      0.59730000     -9.51500000      9.86800000    -16.52900000
      2.95990000    878.64000000     -0.56790000     -9.04700000      9.16600000    -15.58800000
      3.25000000    711.28000000     -0.34790000     -9.06000000      9.84500000    -17.77400000
      1.06910000     65.68880000      0.27470000     -9.61200000     10.25300000    -18.51500000
      3.39970000    457.72960000     -0.24000000     -7.79900000      9.20900000    -18.12400000
      2.47140000     65.68880000      0.14260000     -7.67500000      8.29200000    -17.54800000
      3.39970000    457.72960000     -0.00940000     -7.77400000      8.85500000    -19.63000000
      2.64950000     65.68880000      0.03620000     -8.23900000      9.65800000    -20.20300000
      2.64950000     65.68880000      0.03620000     -6.74300000      8.72500000    -19.95900000
      3.39970000    457.72960000      0.01870000     -8.54800000      7.55500000    -19.85400000
      2.64950000     65.68880000      0.01030000     -7.97800000      6.74900000    -19.39200000
      2.64950000     65.68880000      0.01030000     -9.51000000      7.65400000    -19.35100000
      3.39970000    457.72960000     -0.04790000     -8.77400000      7.23800000    -21.31800000
      2.64950000     65.68880000      0.06210000     -9.22000000      8.10200000    -21.81000000
      2.64950000     65.68880000      0.06210000     -7.81900000      7.00500000    -21.78900000
      3.39970000    457.72960000     -0.01430000     -9.71200000      6.03700000    -21.44800000
      1.96000000     65.68880000      0.11350000     -9.14500000      5.14500000    -21.18200000
      1.96000000     65.68880000      0.11350000    -10.52500000      6.17600000    -20.73600000
      3.25000000    711.28000000     -0.38540000    -10.27600000      5.87600000    -22.82300000
      1.06910000     65.68880000      0.34000000     -9.52200000      5.74700000    -23.48300000
      1.06910000     65.68880000      0.34000000    -10.88400000      5.07000000    -22.84500000
      1.06910000     65.68880000      0.34000000    -10.80200000      6.70200000    -23.07000000
      3.39970000    359.82400000      0.73410000     -6.65200000     10.15400000    -17.76600000
      2.95990000    878.64000000     -0.58940000     -6.79100000     11.36000000    -17.89800000
      3.25000000    711.28000000     -0.25480000     -5.55300000      9.63000000    -17.22500000
      3.39970000    457.72960000      0.01920000     -5.16100000      8.22600000    -17.00700000
      2.47140000     65.68880000      0.03910000     -4.96000000      7.74900000    -17.96600000
      2.47140000     65.68880000      0.03910000     -5.96700000      7.69600000    -16.50000000
      3.39970000    457.72960000      0.01890000     -3.92900000      8.34700000    -16.15300000
      2.64950000     65.68880000      0.02130000     -3.29400000      7.47200000    -16.29400000
      2.64950000     65.68880000      0.02130000     -4.21300000      8.42500000    -15.10300000
      3.39970000    457.72960000     -0.00700000     -3.24500000      9.60200000    -16.61800000
      2.64950000     65.68880000      0.02530000     -2.63600000      9.47100000    -17.51200000
      2.64950000     65.68880000      0.02530000     -2.63200000     10.02000000    -15.81900000
      3.39970000    457.72960000     -0.02660000     -4.44000000     10.55600000    -16.92600000
      2.47140000     65.68880000      0.06410000     -4.75800000     11.12000000    -16.04900000
      3.39970000    359.82400000      0.58960000     -4.01400000     11.54400000    -18.05100000
      2.95990000    878.64000000     -0.57480000     -3.73000000     12.70300000    -17.74200000
      3.25000000    711.28000000     -0.41570000     -4.01100000     11.12900000    -19.31300000
      1.06910000     65.68880000      0.27190000     -4.25900000     10.18000000    -19.55200000
      3.39970000    457.72960000      0.03370000     -3.51800000     12.03200000    -20.40500000
      2.47140000     65.68880000      0.08230000     -2.58100000     12.45600000    -20.04500000
      3.39970000    457.72960000     -0.18250000     -3.24000000     11.25800000    -21.69700000
      2.64950000     65.68880000      0.06030000     -4.17100000     10.83500000    -22.07500000
      2.64950000     65.68880000      0.06030000     -2.81900000     11.93300000    -22.44200000
      2.64950000     65.68880000      0.06030000     -2.53200000     10.45400000    -21.49500000
      3.39970000    359.82400000      0.59730000     -4.47700000     13.20600000    -20.65900000
      2.95990000    878.64000000     -0.56790000     -4.02400000     14.31500000    -20.84300000
      3.25000000    711.28000000     -0.41570000     -5.79000000     12.96100000    -20.58100000
      1.06910000     65.68880000      0.27190000     -6.12700000     12.01400000    -20.48000000
      3.39970000    457.72960000     -0.03890000     -6.76500000     14.03400000    -20.65500000
      2.47140000     65.68880000      0.10070000     -6.59500000     14.60900000    -21.56500000
      3.39970000    457.72960000      0.36540000     -8.21700000     13.48400000    -20.68000000
      2.47140000     65.68880000      0.00430000     -8.43200000     13.06200000    -19.69800000
      3.39970000    457.72960000     -0.24380000     -9.27200000     14.58400000    -21.01500000
      2.64950000     65.68880000      0.06420000     -9.05800000     15.00600000    -21.99700000
      2.64950000     65.68880000      0.06420000    -10.26900000     14.14300000    -21.01900000
      2.64950000     65.68880000      0.06420000     -9.22700000     15.37200000    -20.26400000
      3.06650000    880.31360000     -0.67610000     -8.31000000     12.47200000    -21.67200000
      1.24730000     41.84000000      0.41020000     -9.20500000     12.12700000    -21.69400000
      3.39970000    359.82400000      0.59730000     -6.63600000     14.99000000    -19.45200000
      2.95990000    878.64000000     -0.56790000     -6.66400000     16.22600000    -19.61900000
      3.25000000    711.28000000     -0.41570000     -6.48800000     14.44600000    -18.25600000
      1.06910000     65.68880000      0.27190000     -6.42600000     13.44100000    -18.18300000
      3.39970000    457.72960000     -0.02750000     -6.41000000     15.24400000    -17.01700000
      2.47140000     65.68880000      0.11230000     -7.33300000     15.81000000    -16.88900000
      3.39970000    457.72960000     -0.00500000     -6.21800000     14.35500000    -15.81100000
      2.64950000     65.68880000      0.03390000     -7.20700000     13.89800000    -15.79800000
      2.64950000     65.68880000      0.03390000     -5.45900000     13.57600000    -15.87800000
      3.39970000    359.82400000     -0.14150000     -6.03000000     15.03400000    -14.44800000
      3.39970000    359.82400000     -0.16380000     -4.94100000     15.00600000    -13.70100000
      2.51060000     62.76000000      0.20620000     -4.06300000     14.52600000    -14.13300000
      3.25000000    711.28000000     -0.34180000     -5.17300000     15.61100000    -12.50500000
      1.06910000     65.68880000      0.34120000     -4.49300000     15.73400000    -11.76800000
      3.39970000    359.82400000      0.13800000     -6.49500000     15.98400000    -12.44200000
      3.39970000    359.82400000     -0.26010000     -7.21000000     16.58700000    -11.41800000
      2.59960000     62.76000000      0.15720000     -6.68900000     16.83700000    -10.49400000
      3.39970000    359.82400000     -0.11340000     -8.53500000     16.83100000    -11.63700000
      2.59960000     62.76000000      0.14170000     -9.11800000     17.37400000    -10.89400000
      3.39970000    359.82400000     -0.19720000     -9.17000000     16.39100000    -12.81500000
      2.59960000     62.76000000      0.14470000    -10.24600000     16.50400000    -12.94500000
      3.39970000    359.82400000     -0.23870000     -8.45100000     15.80500000    -13.83800000
      2.59960000     62.76000000      0.17000000     -8.96400000     15.53300000    -14.76100000
      3.39970000    359.82400000      0.12430000     -7.07300000     15.59600000    -13.63600000
      3.39970000    359.82400000      0.59730000     -5.23100000     16.17500000    -17.16400000
      2.95990000    878.64000000     -0.56790000     -5.38800000     17.39400000    -17.05500000
      3.25000000    711.28000000     -0.41570000     -4.07400000     15.61800000    -17.48100000
      1.06910000     65.68880000      0.27190000     -4.01200000     14.61800000    -17.60900000
      3.39970000    457.72960000      0.03370000     -2.81800000     16.42800000    -17.59100000
      2.47140000     65.68880000      0.08230000     -2.68200000     16.96300000    -16.65100000
      3.39970000    457.72960000     -0.18250000     -1.60800000     15.51600000    -17.81500000
      2.64950000     65.68880000      0.06030000     -1.72500000     14.98100000    -18.75700000
      2.64950000     65.68880000      0.06030000     -0.70000000     16.11800000    -17.85100000
      2.64950000     65.68880000      0.06030000     -1.53600000     14.79900000    -16.99700000
      3.39970000    359.82400000      0.59730000     -2.90100000     17.46600000    -18.70400000
      2.95990000    878.64000000     -0.56790000     -2.47600000     18.60600000    -18.53500000
      3.25000000    711.28000000     -0.41570000     -3.47300000     17.06800000    -19.84200000
      1.06910000     65.68880000      0.27190000     -3.79000000     16.11300000    -19.92700000
      3.39970000    457.72960000      0.03370000     -3.60800000     17.94700000    -20.99900000
      2.47140000     65.68880000      0.08230000     -2.61400000     18.29600000    -21.27800000
      3.39970000    457.72960000     -0.18250000     -4.22300000     17.21400000    -22.19600000
      2.64950000     65.68880000      0.06030000     -5.22300000     16.86600000    -21.93500000
      2.64950000     65.68880000      0.06030000     -4.28500000     17.89400000    -23.04600000
      2.64950000     65.68880000      0.06030000     -3.59900000     16.36000000    -22.45900000
      3.39970000    359.82400000      0.59730000     -4.45000000     19.17300000    -20.65400000
      2.95990000    878.64000000     -0.56790000     -4.17300000     20.25600000    -21.19200000
      3.25000000    711.28000000     -0.41570000     -5.45400000     19.01900000    -19.77700000
      1.06910000     65.68880000      0.27190000     -5.72800000     18.08500000    -19.50800000
      3.39970000    457.72960000     -0.00240000     -6.34300000     20.14700000    -19.40700000
      2.47140000     65.68880000      0.09780000     -6.14400000     20.99600000    -20.06100000
      3.39970000    457.72960000     -0.03430000     -7.77300000     19.76900000    -19.54200000
      2.64950000     65.68880000      0.02950000     -7.90100000     18.80100000    -19.05800000
      2.64950000     65.68880000      0.02950000     -8.45100000     20.49300000    -19.09000000
      3.39970000    359.82400000      0.01180000     -8.21300000     19.59900000    -20.96200000
      3.39970000    359.82400000     -0.12560000     -8.03400000     18.40800000    -21.61700000
      2.59960000     62.76000000      0.13300000     -7.61500000     17.56500000    -21.06700000
      3.39970000    359.82400000     -0.17040000     -8.37600000     18.26300000    -22.95700000
      2.59960000     62.76000000      0.14300000     -8.22400000     17.30300000    -23.45100000
      3.39970000    359.82400000     -0.10720000     -8.92000000     19.35400000    -23.68000000
      2.59960000     62.76000000      0.12970000     -9.17100000     19.25200000    -24.73600000
      3.39970000    359.82400000     -0.17040000     -9.13400000     20.57100000    -23.02500000
      2.59960000     62.76000000      0.14300000     -9.58800000     21.41300000    -23.54900000
      3.39970000    359.82400000     -0.12560000     -8.76100000     20.70100000    -21.69000000
      2.59960000     62.76000000      0.13300000     -8.88500000     21.65600000    -21.18000000
      3.39970000    359.82400000      0.59730000     -6.01600000     20.86400000    -18.10700000
      2.95990000    878.64000000     -0.56790000     -6.85400000     21.58700000    -17.56100000
      3.25000000    711.28000000     -0.41570000     -4.78900000     20.68200000    -17.59700000
      1.06910000     65.68880000      0.27190000     -4.15700000     20.01400000    -18.01400000
      3.39970000    457.72960000     -0.02520000     -4.32200000     21.45000000    -16.41200000
      2.47140000     65.68880000      0.06980000     -3.28500000     21.71400000    -16.62100000
      2.47140000     65.68880000      0.06980000     -4.92900000     22.35500000    -16.38800000
      3.39970000    359.82400000      0.59730000     -4.39400000     20.78200000    -15.08100000
      2.95990000    878.64000000     -0.56790000     -4.06800000     21.38800000    -14.04800000
      3.25000000    711.28000000     -0.41570000     -4.86100000     19.53500000    -15.07000000
      1.06910000     65.68880000      0.27190000     -5.18900000     19.07600000    -15.90800000
      3.39970000    457.72960000     -0.02520000     -4.90500000     18.81500000    -13.84700000
      2.47140000     65.68880000      0.06980000     -5.33600000     19.44200000    -13.06600000
      2.47140000     65.68880000      0.06980000     -5.51300000     17.91900000    -13.96900000
      3.39970000    359.82400000      0.59730000     -3.50200000     18.40800000    -13.43600000
      2.95990000    878.64000000     -0.56790000     -2.72600000     17.92900000    -14.25600000
      3.25000000    711.28000000     -0.41570000     -3.30700000     18.40100000    -12.13200000
      1.06910000     65.68880000      0.27190000     -3.95600000     18.85300000    -11.50400000
      3.39970000    457.72960000     -0.08750000     -2.11400000     17.82300000    -11.57800000
      2.47140000     65.68880000      0.09690000     -1.50000000     17.33700000    -12.33600000
      3.39970000    457.72960000      0.29850000     -1.26700000     18.91000000    -10.87800000
      2.64950000     65.68880000     -0.02970000     -1.09400000     19.72500000    -11.58100000
      3.39970000    457.72960000     -0.31920000     -1.98400000     19.45200000     -9.63300000
      2.64950000     65.68880000      0.07910000     -2.15700000     18.63800000     -8.92900000
      2.64950000     65.68880000      0.07910000     -1.36600000     20.21500000     -9.16000000
      2.64950000     65.68880000      0.07910000     -2.93900000     19.88800000     -9.92400000
      3.39970000    457.72960000     -0.31920000      0.09600000     18.35800000    -10.50900000
      2.64950000     65.68880000      0.07910000      0.61300000     18.03100000    -11.41100000
      2.64950000     65.68880000      0.07910000      0.68200000     19.13400000    -10.01700000
      2.64950000     65.68880000      0.07910000     -0.02500000     17.51100000     -9.83300000
      3.39970000    359.82400000      0.59730000     -2.46000000     16.66700000    -10.61600000
      2.95990000    878.64000000     -0.56790000     -3.52500000     16.66000000     -9.99000000
      3.25000000    711.28000000     -0.41570000     -1.53700000     15.71500000    -10.50000000
      1.06910000     65.68880000      0.27190000     -0.71900000     15.76900000    -11.09100000
      3.39970000    457.72960000     -0.02520000     -1.64300000     14.60200000     -9.56900000
      2.47140000     65.68880000      0.06980000     -0.69200000     14.07100000     -9.52700000
      2.47140000     65.68880000      0.06980000     -1.89100000     14.98000000     -8.57700000
      3.39970000    359.82400000      0.59730000     -2.73100000     13.63500000    -10.01700000
      2.95990000    878.64000000     -0.56790000     -3.22000000     13.65900000    -11.16900000
      3.25000000    711.28000000     -0.41570000     -3.08300000     12.78800000     -9.09100000
      1.06910000     65.68880000      0.27190000     -2.64000000     12.83600000     -8.18500000
      3.39970000    457.72960000      0.01430000     -4.09500000     11.77500000     -9.30800000
      2.47140000     65.68880000      0.10480000     -3.96600000     11.30100000    -10.28100000
      3.39970000    457.72960000     -0.20410000     -3.95500000     10.71500000     -8.23000000
      2.64950000     65.68880000      0.07970000     -2.92100000     10.37100000     -8.22900000
      2.64950000     65.68880000      0.07970000     -4.20000000     11.13200000     -7.25300000
      3.39970000    359.82400000      0.71300000     -4.85800000      9.53000000     -8.49000000
      2.95990000    878.64000000     -0.59310000     -5.99800000      9.68600000     -8.97200000
      3.25000000    711.28000000     -0.91910000     -4.39600000      8.35800000     -8.15800000
      1.06910000     65.68880000      0.41960000     -4.96000000      7.53400000     -8.31100000
      1.06910000     65.68880000      0.41960000     -3.47600000      8.27900000     -7.74900000
      3.39970000    359.82400000      0.59730000     -5.48400000     12.43400000     -9.22400000
      2.95990000    878.64000000     -0.56790000     -5.81800000     13.12200000     -8.25500000
      3.25000000    711.28000000     -0.25480000     -6.28500000     12.29500000    -10.28600000
      3.39970000    457.72960000      0.01920000     -5.99400000     11.77700000    -11.63600000
      2.47140000     65.68880000      0.03910000     -5.93900000     10.68900000    -11.59600000
      2.47140000     65.68880000      0.03910000     -5.03700000     12.17600000    -11.97200000
      3.39970000    457.72960000      0.01890000     -7.16700000     12.27600000    -12.48800000
      2.64950000     65.68880000      0.02130000     -7.47500000     11.48600000    -13.17300000
      2.64950000     65.68880000      0.02130000     -6.85000000     13.14800000    -13.06000000
      3.39970000    457.72960000     -0.00700000     -8.25800000     12.63000000    -11.54000000
      2.64950000     65.68880000      0.02530000     -8.98900000     11.83000000    -11.42100000
      2.64950000     65.68880000      0.02530000     -8.75400000     13.52000000    -11.92800000
      3.39970000    457.72960000     -0.02660000     -7.60400000     12.94300000    -10.19100000
      2.47140000     65.68880000      0.06410000     -7.42300000     14.01800000    -10.17600000
      3.39970000    359.82400000      0.58960000     -8.44800000     12.54300000     -8.94900000
      2.95990000    878.64000000     -0.57480000     -9.34300000     13.34300000     -8.48600000
      3.25000000    711.28000000     -0.41570000     -8.23400000     11.32600000     -8.47800000
      1.06910000     65.68880000      0.27190000     -7.56000000     10.72200000     -8.92600000
      3.39970000    457.72960000      0.03370000     -9.00000000     10.79300000     -7.33600000
      2.47140000     65.68880000      0.08230000    -10.06200000     10.96900000     -7.50500000
      3.39970000    457.72960000     -0.18250000     -8.76700000      9.31200000     -7.25000000
      2.64950000     65.68880000      0.06030000     -7.70900000      9.12000000     -7.07200000
      2.64950000     65.68880000      0.06030000     -9.35400000      8.89800000     -6.43000000
      2.64950000     65.68880000      0.06030000     -9.06900000      8.84100000     -8.18600000
      3.39970000    359.82400000      0.59730000     -8.63200000     11.46300000     -6.02900000
      2.95990000    878.64000000     -0.56790000     -9.35300000     11.30600000     -5.07700000
      3.25000000    711.28000000     -0.41570000     -7.48400000     12.13000000     -5.96800000
      1.06910000     65.68880000      0.27190000     -6.83500000     11.99300000     -6.73000000
      3.39970000    457.72960000      0.03370000     -7.05500000     12.92800000     -4.83300000
      2.47140000     65.68880000      0.08230000     -7.54800000     12.48400000     -3.96800000
      3.39970000    457.72960000     -0.18250000     -5.54800000     12.80800000     -4.64900000
      2.64950000     65.68880000      0.06030000     -5.04000000     13.25600000     -5.50300000
      2.64950000     65.68880000      0.06030000     -5.25000000     13.32600000     -3.73700000
      2.64950000     65.68880000      0.06030000     -5.27300000     11.75600000     -4.57500000
      3.39970000    359.82400000      0.59730000     -7.49400000     14.37400000     -4.89400000
      2.95990000    878.64000000     -0.56790000     -7.41800000     15.14400000     -3.91400000
      3.25000000    711.28000000     -0.41570000     -7.96600000     14.79900000     -6.05400000
      1.06910000     65.68880000      0.27190000     -8.01600000     14.16200000     -6.83600000
      3.39970000    457.72960000      0.03370000     -8.39300000     16.16500000     -6.25500000
      2.47140000     65.68880000      0.08230000     -7.76000000     16.86400000     -5.70800000
      3.39970000    457.72960000     -0.18250000     -8.38000000     16.54900000     -7.73200000
      2.64950000     65.68880000      0.06030000     -9.01700000     15.86400000     -8.29200000
      2.64950000     65.68880000      0.06030000     -8.75300000     17.56700000     -7.84700000
      2.64950000     65.68880000      0.06030000     -7.36100000     16.49100000     -8.11400000
      3.39970000    359.82400000      0.59730000     -9.85100000     16.28800000     -5.66100000
      2.95990000    878.64000000     -0.56790000    -10.56000000     15.32300000     -5.61000000
      3.25000000    711.28000000     -0.41570000    -10.20800000     17.48300000     -5.17200000
      1.06910000     65.68880000      0.27190000     -9.51700000     18.21000000     -5.05300000
      3.39970000    457.72960000     -0.02490000    -11.59300000     17.74400000     -4.70100000
      2.47140000     65.68880000      0.08430000    -11.88000000     16.98900000     -3.96900000
      3.39970000    457.72960000      0.21170000    -11.69200000     19.13700000     -4.03900000
      2.47140000     65.68880000      0.03520000    -12.66500000     19.22100000     -3.55500000
      2.47140000     65.68880000      0.03520000    -10.90500000     19.22000000     -3.28900000
      3.06650000    880.31360000     -0.65460000    -11.54500000     20.19500000     -5.01000000
      1.24730000     41.84000000      0.42750000    -11.61100000     21.04500000     -4.56900000
      3.39970000    359.82400000      0.59730000    -12.54400000     17.58600000     -5.85200000
      2.95990000    878.64000000     -0.56790000    -12.18100000     17.70700000     -7.02900000
      3.25000000    711.28000000     -0.34790000    -13.82900000     17.37900000     -5.53700000
      1.06910000     65.68880000      0.27470000    -14.09400000     17.18000000     -4.58300000
      3.39970000    457.72960000     -0.26370000    -14.86500000     17.43900000     -6.53400000
      2.47140000     65.68880000      0.15600000    -14.76700000     16.61500000     -7.24100000
      3.39970000    457.72960000     -0.00070000    -16.24900000     17.32500000     -5.82400000
      2.64950000     65.68880000      0.03270000    -16.36100000     16.28100000     -5.53300000
      2.64950000     65.68880000      0.03270000    -16.19000000     17.94600000     -4.93000000
      3.39970000    457.72960000      0.03900000    -17.43300000     17.74500000     -6.64800000
      2.64950000     65.68880000      0.02850000    -17.28300000     18.77900000     -6.95900000
      2.64950000     65.68880000      0.02850000    -17.48000000     17.10500000     -7.52900000
      3.39970000    457.72960000      0.04860000    -18.74500000     17.63300000     -5.86600000
      2.47140000     65.68880000      0.06870000    -18.94800000     16.58200000     -5.66200000
      2.47140000     65.68880000      0.06870000    -18.64400000     18.17200000     -4.92400000
      3.25000000    711.28000000     -0.52950000    -19.88700000     18.20000000     -6.61700000
      1.06910000     65.68880000      0.34560000    -20.48900000     17.52100000     -7.06100000
      3.39970000    359.82400000      0.80760000    -20.10600000     19.50200000     -6.85400000
      3.25000000    711.28000000     -0.86270000    -19.37300000     20.49000000     -6.34300000
      1.06910000     65.68880000      0.44780000    -18.59600000     20.27600000     -5.73500000
      1.06910000     65.68880000      0.44780000    -19.59800000     21.44900000     -6.56600000
      3.25000000    711.28000000     -0.86270000    -21.16700000     19.84600000     -7.51700000
      1.06910000     65.68880000      0.44780000    -21.80800000     19.13600000     -7.84300000
      1.06910000     65.68880000      0.44780000    -21.34700000     20.82200000     -7.70400000
      3.39970000    359.82400000      0.73410000    -14.82500000     18.77400000     -7.32300000
      2.95990000    878.64000000     -0.58940000    -14.93700000     18.72200000     -8.52400000
      3.25000000    711.28000000     -0.51630000    -14.70400000     19.88100000     -6.62700000
      1.06910000     65.68880000      0.29360000    -14.81900000     19.82700000     -5.62500000
      3.39970000    457.72960000      0.03970000    -14.62000000     21.15100000     -7.22000000
      2.47140000     65.68880000      0.11050000    -15.47900000     21.27600000     -7.87900000
      3.39970000    457.72960000      0.05600000    -14.60600000     22.31300000     -6.20000000
      2.64950000     65.68880000     -0.01730000    -13.76000000     22.14800000     -5.53200000
      2.64950000     65.68880000     -0.01730000    -14.45100000     23.23500000     -6.76100000
      3.39970000    457.72960000      0.01360000    -15.88300000     22.42600000     -5.38200000
      2.64950000     65.68880000     -0.04250000    -15.76700000     23.31000000     -4.75500000
      2.64950000     65.68880000     -0.04250000    -16.72800000     22.56700000     -6.05500000
      3.39970000    359.82400000      0.80540000    -16.14300000     21.16200000     -4.46800000
      2.95990000    878.64000000     -0.81880000    -15.17500000     20.44800000     -3.88900000
      2.95990000    878.64000000     -0.81880000    -17.35100000     20.79300000     -4.31000000
      3.39970000    359.82400000      0.53660000    -13.46300000     21.27800000     -8.27200000
      2.95990000    878.64000000     -0.58190000    -13.67800000     21.77300000     -9.35400000
      3.25000000    711.28000000     -0.41570000    -12.31200000     20.74800000     -7.96500000
      1.06910000     65.68880000      0.27190000    -12.19500000     20.40600000     -7.02200000
      3.39970000    457.72960000     -0.00310000    -11.14900000     20.69000000     -8.88300000
      2.47140000     65.68880000      0.08500000    -10.97700000     21.67000000     -9.32800000
      3.39970000    457.72960000     -0.00360000     -9.88200000     20.27100000     -8.11100000
      2.64950000     65.68880000      0.01710000    -10.09400000     19.34700000     -7.57400000
      2.64950000     65.68880000      0.01710000     -9.08100000     20.09700000     -8.83000000
      3.39970000    457.72960000     -0.06450000     -9.44900000     21.35200000     -7.11500000
      2.64950000     65.68880000      0.03520000     -9.05000000     22.19800000     -7.67500000
      2.64950000     65.68880000      0.03520000    -10.32800000     21.67000000     -6.55500000
      3.39970000    359.82400000      0.69510000     -8.40700000     20.88600000     -6.14500000
      2.95990000    878.64000000     -0.60860000     -8.36900000     19.72100000     -5.72700000
      3.25000000    711.28000000     -0.94070000     -7.53600000     21.79800000     -5.77300000
      1.06910000     65.68880000      0.42510000     -6.80400000     21.55600000     -5.12000000
      1.06910000     65.68880000      0.42510000     -7.60300000     22.73600000     -6.14200000
      3.39970000    359.82400000      0.59730000    -11.35200000     19.77300000    -10.06900000
      2.95990000    878.64000000     -0.56790000    -10.96200000     20.13400000    -11.23300000
      3.25000000    711.28000000     -0.41570000    -12.03200000     18.64600000     -9.84700000
      1.06910000     65.68880000      0.27190000    -12.31800000     18.41800000     -8.90600000
      3.39970000    457.72960000     -0.00310000    -12.30300000     17.68700000    -10.89900000
      2.47140000     65.68880000      0.08500000    -11.38000000     17.46700000    -11.43500000
      3.39970000    457.72960000     -0.00360000    -12.85200000     16.40300000    -10.34100000
      2.64950000     65.68880000      0.01710000    -13.67900000     16.66000000     -9.67900000
      2.64950000     65.68880000      0.01710000    -13.22600000     15.81400000    -11.17900000
      3.39970000    457.72960000     -0.06450000    -11.83600000     15.60300000     -9.58300000
      2.64950000     65.68880000      0.03520000    -10.98300000     15.31800000    -10.19800000
      2.64950000     65.68880000      0.03520000    -11.50000000     16.25500000     -8.77700000
      3.39970000    359.82400000      0.69510000    -12.44400000     14.33100000     -8.96600000
      2.95990000    878.64000000     -0.60860000    -12.99800000     13.49800000     -9.70400000
      3.25000000    711.28000000     -0.94070000    -12.26300000     14.15600000     -7.71100000
      1.06910000     65.68880000      0.42510000    -12.64200000     13.33600000     -7.25900000
      1.06910000     65.68880000      0.42510000    -11.74200000     14.83800000     -7.17900000
      3.39970000    359.82400000      0.59730000    -13.24800000     18.39800000    -11.86200000
      2.95990000    878.64000000     -0.56790000    -13.16200000     18.18600000    -13.09400000
      3.25000000    711.28000000     -0.41570000    -14.25700000     19.09700000    -11.32300000
      1.06910000     65.68880000      0.27190000    -14.40700000     19.07900000    -10.32400000
      3.39970000    457.72960000     -0.05970000    -15.22000000     19.74600000    -12.13600000
      2.47140000     65.68880000      0.08690000    -15.57800000     19.11900000    -12.95300000
      3.39970000    457.72960000      0.13030000    -16.44500000     20.23000000    -11.26900000
      2.64950000     65.68880000      0.01870000    -16.06500000     20.61000000    -10.32100000
      3.39970000    457.72960000     -0.32040000    -17.23700000     21.32000000    -11.97000000
      2.64950000     65.68880000      0.08820000    -17.61800000     20.94000000    -12.91800000
      2.64950000     65.68880000      0.08820000    -18.07200000     21.62600000    -11.34000000
      2.64950000     65.68880000      0.08820000    -16.59000000     22.17700000    -12.15600000
      3.39970000    457.72960000     -0.04300000    -17.31700000     18.98900000    -10.90400000
      2.64950000     65.68880000      0.02360000    -17.79500000     18.62700000    -11.81400000
      2.64950000     65.68880000      0.02360000    -16.66100000     18.21500000    -10.50700000
      3.39970000    457.72960000     -0.06600000    -18.34900000     19.31800000     -9.90500000
      2.64950000     65.68880000      0.01860000    -19.00600000     20.09200000    -10.30200000
      2.64950000     65.68880000      0.01860000    -18.93400000     18.42600000     -9.67900000
      2.64950000     65.68880000      0.01860000    -17.87200000     19.67900000     -8.99400000
      3.39970000    359.82400000      0.59730000    -14.55300000     20.87200000    -12.97000000
      2.95990000    878.64000000     -0.56790000    -14.96400000     21.11200000    -14.10100000
      3.25000000    711.28000000     -0.41570000    -13.61500000     21.58700000    -12.37400000
      1.06910000     65.68880000      0.27190000    -13.34300000     21.34300000    -11.43200000
      3.39970000    457.72960000      0.03370000    -12.96200000     22.72600000    -13.00900000
      2.47140000     65.68880000      0.08230000    -13.68900000     23.46900000    -13.33800000
      3.39970000    457.72960000     -0.18250000    -11.96000000     23.40200000    -12.08700000
      2.64950000     65.68880000      0.06030000    -11.22000000     22.67300000    -11.75700000
      2.64950000     65.68880000      0.06030000    -11.46000000     24.20900000    -12.62200000
      2.64950000     65.68880000      0.06030000    -12.48000000     23.80900000    -11.22000000
      3.39970000    359.82400000      0.59730000    -12.25200000     22.19200000    -14.25400000
      2.95990000    878.64000000     -0.56790000    -12.35300000     22.78800000    -15.30900000
      3.25000000    711.28000000     -0.41570000    -11.59100000     21.04100000    -14.13800000
      1.06910000     65.68880000      0.27190000    -11.41300000     20.67400000    -13.21400000
      3.39970000    457.72960000     -0.08750000    -10.94500000     20.38300000    -15.28600000
      2.47140000     65.68880000      0.09690000    -10.42100000     21.13200000    -15.88000000
      3.39970000    457.72960000      0.29850000     -9.93800000     19.28200000    -14.88000000
      2.64950000     65.68880000     -0.02970000    -10.46500000     18.50000000    -14.33400000
      3.39970000    457.72960000     -0.31920000     -9.27100000     18.67200000    -16.14300000
      2.64950000     65.68880000      0.07910000     -8.74300000     19.45400000    -16.68900000
      2.64950000     65.68880000      0.07910000     -8.56400000     17.89800000    -15.84300000
      2.64950000     65.68880000      0.07910000    -10.03700000     18.23500000    -16.78400000
      3.39970000    457.72960000     -0.31920000     -8.88200000     19.86200000    -13.97500000
      2.64950000     65.68880000      0.07910000     -9.35300000     20.26700000    -13.07900000
      2.64950000     65.68880000      0.07910000     -8.17600000     19.08100000    -13.69300000
      2.64950000     65.68880000      0.07910000     -8.35200000     20.65800000    -14.49800000
      3.39970000    359.82400000      0.59730000    -11.96000000     19.91200000    -16.28400000
      2.95990000    878.64000000     -0.56790000    -11.80300000     20.12400000    -17.49500000
      3.25000000    711.28000000     -0.41570000    -13.02300000     19.27100000    -15.82500000
      1.06910000     65.68880000      0.27190000    -13.10400000     18.98500000    -14.86000000
      3.39970000    457.72960000      0.03370000    -14.07600000     18.86700000    -16.75900000
      2.47140000     65.68880000      0.08230000    -13.59400000     18.17700000    -17.45200000
      3.39970000    457.72960000     -0.18250000    -15.20200000     18.12600000    -16.03600000
      2.64950000     65.68880000      0.06030000    -15.70000000     18.80600000    -15.34500000
      2.64950000     65.68880000      0.06030000    -15.92300000     17.75800000    -16.76600000
      2.64950000     65.68880000      0.06030000    -14.78600000     17.28500000    -15.48100000
      3.39970000    359.82400000      0.59730000    -14.66800000     20.02800000    -17.58500000
      2.95990000    878.64000000     -0.56790000    -14.94900000     19.85400000    -18.76400000
      3.25000000    711.28000000     -0.41570000    -14.90900000     21.17400000    -16.95400000
      1.06910000     65.68880000      0.27190000    -14.87800000     21.21200000    -15.94500000
      3.39970000    457.72960000      0.01430000    -15.42200000     22.35900000    -17.68700000
      2.47140000     65.68880000      0.10480000    -16.32000000     22.08400000    -18.23900000
      3.39970000    457.72960000     -0.20410000    -15.77100000     23.50100000    -16.71900000
      2.64950000     65.68880000      0.07970000    -14.97500000     23.55000000    -15.97600000
      2.64950000     65.68880000      0.07970000    -15.83700000     24.45400000    -17.24400000
      3.39970000    359.82400000      0.71300000    -17.08400000     23.24900000    -16.00600000
      2.95990000    878.64000000     -0.59310000    -18.05300000     22.73800000    -16.58300000
      3.25000000    711.28000000     -0.91910000    -17.15400000     23.65500000    -14.73200000
      1.06910000     65.68880000      0.41960000    -18.00500000     23.51300000    -14.20600000
      1.06910000     65.68880000      0.41960000    -16.35600000     24.10100000    -14.30300000
      3.39970000    359.82400000      0.59730000    -14.50700000     22.77000000    -18.82400000
      2.95990000    878.64000000     -0.56790000    -14.99800000     23.09500000    -19.89500000
      3.25000000    711.28000000     -0.34790000    -13.18800000     22.72500000    -18.61700000
      1.06910000     65.68880000      0.27470000    -12.83900000     22.54400000    -17.68700000
      3.39970000    457.72960000     -0.26370000    -12.23100000     22.95400000    -19.67500000
      2.47140000     65.68880000      0.15600000    -12.39900000     23.92900000    -20.13200000
      3.39970000    457.72960000     -0.00070000    -10.85100000     22.92200000    -19.11400000
      2.64950000     65.68880000      0.03270000    -10.69500000     21.95800000    -18.63000000
      2.64950000     65.68880000      0.03270000    -10.14100000     23.03600000    -19.93300000
      3.39970000    457.72960000      0.03900000    -10.64300000     24.01900000    -18.11700000
      2.64950000     65.68880000      0.02850000    -10.62700000     24.99000000    -18.61200000
      2.64950000     65.68880000      0.02850000    -11.43100000     24.00800000    -17.36400000
      3.39970000    457.72960000      0.04860000     -9.31400000     23.77100000    -17.45600000
      2.47140000     65.68880000      0.06870000     -9.35500000     22.88600000    -16.82200000
      2.47140000     65.68880000      0.06870000     -8.52700000     23.64700000    -18.20000000
      3.25000000    711.28000000     -0.52950000     -9.00200000     24.89800000    -16.64600000
      1.06910000     65.68880000      0.34560000     -9.69900000     25.62200000    -16.54800000
      3.39970000    359.82400000      0.80760000     -7.82400000     25.08900000    -16.11100000
      3.25000000    711.28000000     -0.86270000     -6.87800000     24.14900000    -16.22900000
      1.06910000     65.68880000      0.44780000     -7.07800000     23.29600000    -16.73100000
      1.06910000     65.68880000      0.44780000     -5.96900000     24.29700000    -15.81500000
      3.25000000    711.28000000     -0.86270000     -7.62000000     26.15400000    -15.37200000
      1.06910000     65.68880000      0.44780000     -8.37100000     26.81300000    -15.22400000
      1.06910000     65.68880000      0.44780000     -6.71300000     26.30900000    -14.95500000
      3.39970000    359.82400000      0.73410000    -12.30000000     21.92900000    -20.83000000
      2.95990000    878.64000000     -0.58940000    -12.29400000     22.30900000    -22.01000000
      3.25000000    711.28000000     -0.41570000    -12.41600000     20.64500000    -20.47500000
      1.06910000     65.68880000      0.27190000    -12.33500000     20.39900000    -19.49900000
      3.39970000    457.72960000     -0.08750000    -12.59200000     19.56900000    -21.44800000
      2.47140000     65.68880000      0.09690000    -11.77200000     19.59200000    -22.16600000
      3.39970000    457.72960000      0.29850000    -12.62200000     18.14900000    -20.76300000
      2.64950000     65.68880000     -0.02970000    -13.36300000     18.15400000    -19.96400000
      3.39970000    457.72960000     -0.31920000    -12.98600000     17.07100000    -21.79100000
      2.64950000     65.68880000      0.07910000    -12.24500000     17.06500000    -22.59000000
      2.64950000     65.68880000      0.07910000    -13.00300000     16.09600000    -21.30500000
      2.64950000     65.68880000      0.07910000    -13.96900000     17.28500000    -22.21000000
      3.39970000    457.72960000     -0.31920000    -11.26200000     17.83900000    -20.16900000
      2.64950000     65.68880000      0.07910000    -11.01000000     18.59400000    -19.42400000
      2.64950000     65.68880000      0.07910000    -11.28700000     16.85700000    -19.69700000
      2.64950000     65.68880000      0.07910000    -10.51100000     17.84300000    -20.95900000
      3.39970000    359.82400000      0.59730000    -13.86800000     19.77700000    -22.26200000
      2.95990000    878.64000000     -0.56790000    -13.86900000     19.61200000    -23.50300000
      3.25000000    711.28000000     -0.41570000    -14.94200000     20.16900000    -21.59000000
      1.06910000     65.68880000      0.27190000    -14.88600000     20.26900000    -20.58600000
      3.39970000    457.72960000     -0.05180000    -16.23300000     20.43200000    -22.24700000
      2.47140000     65.68880000      0.09220000    -16.55600000     19.53500000    -22.77500000
      3.39970000    457.72960000     -0.11020000    -17.29100000     20.81100000    -21.25500000
      2.64950000     65.68880000      0.04570000    -17.38000000     19.93200000    -20.61700000
      2.64950000     65.68880000      0.04570000    -16.90500000     21.64600000    -20.67000000
      3.39970000    457.72960000      0.35310000    -18.66900000     21.17500000    -21.81700000
      2.64950000     65.68880000     -0.03610000    -18.55800000     21.99100000    -22.53100000
      3.39970000    457.72960000     -0.41210000    -19.29100000     19.97200000    -22.51500000
      2.64950000     65.68880000      0.10000000    -19.40300000     19.15500000    -21.80200000
      2.64950000     65.68880000      0.10000000    -20.27000000     20.24600000    -22.90900000
      2.64950000     65.68880000      0.10000000    -18.64600000     19.65300000    -23.33400000
      3.39970000    457.72960000     -0.41210000    -19.56700000     21.66700000    -20.71000000
      2.64950000     65.68880000      0.10000000    -19.12500000     22.55000000    -20.24800000
      2.64950000     65.68880000      0.10000000    -20.54400000     21.92300000    -21.12000000
      2.64950000     65.68880000      0.10000000    -19.68200000     20.88400000    -19.96000000
      3.39970000    359.82400000      0.59730000    -16.13600000     21.53200000    -23.27700000
      2.95990000    878.64000000     -0.56790000    -16.60400000     21.37500000    -24.43300000
      3.25000000    711.28000000     -0.41570000    -15.50200000     22.64600000    -22.89300000
      1.06910000     65.68880000      0.27190000    -15.22600000     22.75200000    -21.92700000
      3.39970000    457.72960000      0.03370000    -15.27500000     23.75900000    -23.80100000
      2.47140000     65.68880000      0.08230000    -16.25500000     24.10200000    -24.13200000
      3.39970000    457.72960000     -0.18250000    -14.57100000     24.91100000    -23.08200000
      2.64950000     65.68880000      0.06030000    -13.58400000     24.58600000    -22.75300000
      2.64950000     65.68880000      0.06030000    -14.46600000     25.75500000    -23.76300000
      2.64950000     65.68880000      0.06030000    -15.16000000     25.21400000    -22.21700000
      3.39970000    359.82400000      0.59730000    -14.49100000     23.34500000    -25.05000000
      2.95990000    878.64000000     -0.56790000    -14.84500000     23.73300000    -26.16800000
      3.25000000    711.28000000     -0.51630000    -13.42800000     22.55600000    -24.89700000
      1.06910000     65.68880000      0.29360000    -13.16500000     22.22400000    -23.98000000
      3.39970000    457.72960000      0.03970000    -12.57400000     22.17900000    -26.05600000
      2.47140000     65.68880000      0.11050000    -12.48100000     23.00900000    -26.75600000
      3.39970000    457.72960000      0.05600000    -11.18600000     21.82400000    -25.53500000
      2.64950000     65.68880000     -0.01730000    -10.81700000     22.70200000    -25.00400000
      2.64950000     65.68880000     -0.01730000    -11.31700000     21.00300000    -24.83000000
      3.39970000    457.72960000      0.01360000    -10.17900000     21.41800000    -26.60700000
      2.64950000     65.68880000     -0.04250000     -9.32100000     20.98600000    -26.09200000
      2.64950000     65.68880000     -0.04250000    -10.63200000     20.66500000    -27.25200000
      3.39970000    359.82400000      0.80540000     -9.72100000     22.60000000    -27.45100000
      2.95990000    878.64000000     -0.81880000     -9.87100000     23.74700000    -26.98700000
      2.95990000    878.64000000     -0.81880000     -9.24100000     22.38800000    -28.56900000
      3.39970000    359.82400000      0.53660000    -13.08100000     20.99400000    -26.93200000
      2.95990000    878.64000000     -0.58190000    -12.91200000     21.00600000    -28.14100000
      3.25000000    711.28000000     -0.41570000    -13.68300000     19.98400000    -26.30300000
      1.06910000     65.68880000      0.27190000    -13.88200000     20.13000000    -25.32400000
      3.39970000    457.72960000     -0.00310000    -14.06100000     18.68700000    -26.91100000
      2.47140000     65.68880000      0.08500000    -13.71000000     18.62000000    -27.94100000
      3.39970000    457.72960000     -0.00360000    -13.39600000     17.56500000    -26.09000000
      2.64950000     65.68880000      0.01710000    -13.74500000     17.67900000    -25.06400000
      2.64950000     65.68880000      0.01710000    -13.76200000     16.62100000    -26.49500000
      3.39970000    457.72960000     -0.06450000    -11.86700000     17.57000000    -26.11200000
      2.64950000     65.68880000      0.03520000    -11.50500000     17.66700000    -27.13600000
      2.64950000     65.68880000      0.03520000    -11.56000000     18.44200000    -25.53400000
      3.39970000    359.82400000      0.69510000    -11.24100000     16.33000000    -25.49100000
      2.95990000    878.64000000     -0.60860000    -11.93600000     15.46200000    -24.96300000
      3.25000000    711.28000000     -0.94070000     -9.91700000     16.21400000    -25.60000000
      1.06910000     65.68880000      0.42510000     -9.44900000     15.41000000    -25.20600000
      1.06910000     65.68880000      0.42510000     -9.38800000     16.93000000    -26.07600000
      3.39970000    359.82400000      0.59730000    -15.57600000     18.39800000    -26.96600000
      2.95990000    878.64000000     -0.56790000    -16.00600000     17.46300000    -27.62100000
      3.25000000    711.28000000     -0.41570000    -16.37500000     19.14300000    -26.20800000
      1.06910000     65.68880000      0.27190000    -15.98200000     19.93300000    -25.71700000
      3.39970000    457.72960000     -0.02520000    -17.80100000     18.87100000    -26.05200000
      2.47140000     65.68880000      0.06980000    -18.27000000     19.74100000    -25.59200000
      2.47140000     65.68880000      0.06980000    -18.23100000     18.70700000    -27.04000000
      3.39970000    359.82400000      0.59730000    -18.07200000     17.64000000    -25.18000000
      2.95990000    878.64000000     -0.56790000    -17.15600000     17.04600000    -24.56700000
      3.25000000    711.28000000     -0.41570000    -19.34400000     17.24600000    -25.12600000
      1.06910000     65.68880000      0.27190000    -20.05200000     17.73400000    -25.65600000
      3.39970000    457.72960000     -0.05180000    -19.75400000     16.10900000    -24.30700000
      2.47140000     65.68880000      0.09220000    -19.29700000     16.18400000    -23.32000000
      3.39970000    457.72960000     -0.11020000    -21.26500000     16.07900000    -24.14100000
      2.64950000     65.68880000      0.04570000    -21.63000000     16.18800000    -25.16200000
      2.64950000     65.68880000      0.04570000    -21.54300000     15.09600000    -23.76000000
      3.39970000    457.72960000      0.35310000    -21.88500000     17.15900000    -23.26200000
      2.64950000     65.68880000     -0.03610000    -21.55800000     18.14200000    -23.60000000
      3.39970000    457.72960000     -0.41210000    -23.40100000     17.06700000    -23.36200000
      2.64950000     65.68880000      0.10000000    -23.72900000     16.08400000    -23.02400000
      2.64950000     65.68880000      0.10000000    -23.85400000     17.83600000    -22.73600000
      2.64950000     65.68880000      0.10000000    -23.70700000     17.21500000    -24.39800000
      3.39970000    457.72960000     -0.41210000    -21.41100000     17.02600000    -21.83000000
      2.64950000     65.68880000      0.10000000    -20.32600000     17.12500000    -21.79500000
      2.64950000     65.68880000      0.10000000    -21.86700000     17.80700000    -21.22200000
      2.64950000     65.68880000      0.10000000    -21.69800000     16.04900000    -21.44100000
      3.39970000    359.82400000      0.59730000    -19.32500000     14.80000000    -24.94200000
      2.95990000    878.64000000     -0.56790000    -19.40000000     13.76500000    -24.28500000
      3.25000000    711.28000000     -0.51630000    -18.78700000     14.84500000    -26.15500000
      1.06910000     65.68880000      0.29360000    -18.88900000     15.68400000    -26.70800000
      3.39970000    457.72960000      0.03810000    -18.12800000     13.67500000    -26.77200000
      2.47140000     65.68880000      0.08800000    -18.84900000     12.86200000    -26.85800000
      3.39970000    457.72960000     -0.03030000    -17.58300000     14.00000000    -28.17400000
      2.64950000     65.68880000     -0.01220000    -17.19900000     15.01900000    -28.14000000
      2.64950000     65.68880000     -0.01220000    -16.76700000     13.31200000    -28.39400000
      3.39970000    359.82400000      0.79940000    -18.64900000     13.89300000    -29.26700000
      2.95990000    878.64000000     -0.80140000    -19.79000000     13.48200000    -28.97600000
      2.95990000    878.64000000     -0.80140000    -18.33100000     14.21100000    -30.43300000
      3.39970000    359.82400000      0.53660000    -17.00800000     13.09000000    -25.88900000
      2.95990000    878.64000000     -0.58190000    -16.59900000     11.94300000    -26.07000000
      3.25000000    711.28000000     -0.41570000    -16.50000000     13.87000000    -24.94000000
      1.06910000     65.68880000      0.27190000    -16.74800000     14.84500000    -24.84900000
      3.39970000    457.72960000      0.03370000    -15.48100000     13.33300000    -24.05500000
      2.47140000     65.68880000      0.08230000    -14.75400000     12.80800000    -24.67500000
      3.39970000    457.72960000     -0.18250000    -14.77500000     14.45700000    -23.32700000
      2.64950000     65.68880000      0.06030000    -15.48900000     14.98600000    -22.69500000
      2.64950000     65.68880000      0.06030000    -13.97800000     14.04500000    -22.70800000
      2.64950000     65.68880000      0.06030000    -14.35000000     15.15000000    -24.05300000
      3.39970000    359.82400000      0.59730000    -16.05800000     12.30000000    -23.05300000
      2.95990000    878.64000000     -0.56790000    -15.31400000     11.52000000    -22.49100000
      3.25000000    711.28000000     -0.41570000    -17.38000000     12.29400000    -22.88800000
      1.06910000     65.68880000      0.27190000    -17.89600000     13.01100000    -23.37800000
      3.39970000    457.72960000     -0.02750000    -18.12400000     11.35300000    -22.05100000
      2.47140000     65.68880000      0.11230000    -17.45600000     10.56900000    -21.69400000
      3.39970000    457.72960000     -0.00500000    -18.73200000     12.07700000    -20.83100000
      2.64950000     65.68880000      0.03390000    -19.28100000     12.96600000    -21.14300000
      2.64950000     65.68880000      0.03390000    -19.40600000     11.40100000    -20.30500000
      3.39970000    359.82400000     -0.14150000    -17.69900000     12.53800000    -19.81700000
      3.39970000    359.82400000     -0.16380000    -17.19000000     11.82100000    -18.79700000
      2.51060000     62.76000000      0.20620000    -17.60800000     10.82300000    -18.66300000
      3.25000000    711.28000000     -0.34180000    -16.22300000     12.52900000    -18.12700000
      1.06910000     65.68880000      0.34120000    -15.62400000     12.18800000    -17.38900000
      3.39970000    359.82400000      0.13800000    -16.14700000     13.76100000    -18.70200000
      3.39970000    359.82400000     -0.26010000    -15.29300000     14.81700000    -18.42600000
      2.59960000     62.76000000      0.15720000    -14.58000000     14.71100000    -17.60900000
      3.39970000    359.82400000     -0.11340000    -15.40200000     15.93200000    -19.20300000
      2.59960000     62.76000000      0.14170000    -14.76800000     16.79300000    -18.99300000
      3.39970000    359.82400000     -0.19720000    -16.29400000     15.99900000    -20.24800000
      2.59960000     62.76000000      0.14470000    -16.38600000     16.91300000    -20.83400000
      3.39970000    359.82400000     -0.23870000    -17.10200000     14.91700000    -20.59200000
      2.59960000     62.76000000      0.17000000    -17.62500000     14.93600000    -21.54800000
      3.39970000    359.82400000      0.12430000    -17.07200000     13.79200000    -19.76400000
      3.39970000    359.82400000      0.59730000    -19.22700000     10.74400000    -22.93600000
      2.95990000    878.64000000     -0.56790000    -20.39600000     11.13400000    -22.90200000
      3.25000000    711.28000000     -0.25480000    -18.85800000      9.78800000    -23.78700000
      3.39970000    457.72960000      0.01920000    -17.55900000      9.10100000    -23.92100000
      2.47140000     65.68880000      0.03910000    -17.37300000      8.52200000    -23.01600000
      2.47140000     65.68880000      0.03910000    -16.77700000      9.85100000    -24.03900000
      3.39970000    457.72960000      0.01890000    -17.71100000      8.23300000    -25.14100000
      2.64950000     65.68880000      0.02130000    -17.66900000      7.19400000    -24.81500000
      2.64950000     65.68880000      0.02130000    -16.87000000      8.44000000    -25.80200000
      3.39970000    457.72960000     -0.00700000    -19.01600000      8.54300000    -25.82000000
      2.64950000     65.68880000      0.02530000    -19.61200000      7.66500000    -26.07100000
      2.64950000     65.68880000      0.02530000    -18.75700000      9.07900000    -26.73300000
      3.39970000    457.72960000     -0.02660000    -19.81500000      9.46800000    -24.87400000
      2.47140000     65.68880000      0.06410000    -19.97500000     10.40700000    -25.40400000
      3.39970000    359.82400000      0.58960000    -21.18400000      8.86500000    -24.46700000
      2.95990000    878.64000000     -0.57480000    -22.17100000      9.08300000    -25.17600000
      3.25000000    711.28000000     -0.41570000    -21.25600000      8.13600000    -23.35400000
      1.06910000     65.68880000      0.27190000    -20.41000000      7.85100000    -22.88100000
      3.39970000    457.72960000     -0.03890000    -22.53600000      7.62400000    -22.85700000
      2.47140000     65.68880000      0.10070000    -23.29600000      7.72000000    -23.63300000
      3.39970000    457.72960000      0.36540000    -22.41800000      6.13200000    -22.46300000
      2.47140000     65.68880000      0.00430000    -21.68500000      6.05000000    -21.66000000
      3.39970000    457.72960000     -0.24380000    -23.77000000      5.54300000    -21.98900000
      2.64950000     65.68880000      0.06420000    -24.50300000      5.62400000    -22.79100000
      2.64950000     65.68880000      0.06420000    -23.63700000      4.49400000    -21.72300000
      2.64950000     65.68880000      0.06420000    -24.12200000      6.09600000    -21.11800000
      3.06650000    880.31360000     -0.67610000    -21.97400000      5.42200000    -23.61500000
      1.24730000     41.84000000      0.41020000    -21.89000000      4.48900000    -23.40300000
      3.39970000    359.82400000      0.59730000    -23.10700000      8.46000000    -21.70600000
      2.95990000    878.64000000     -0.56790000    -24.32500000      8.71000000    -21.63100000
      3.25000000    711.28000000     -0.41570000    -22.22100000      8.86300000    -20.82000000
      1.06910000     65.68880000      0.27190000    -21.24800000      8.62500000    -20.95300000
      3.39970000    457.72960000      0.02130000    -22.60000000      9.55300000    -19.60000000
      2.47140000     65.68880000      0.11240000    -23.54400000      9.16900000    -19.21300000
      3.39970000    457.72960000     -0.12310000    -21.50200000      9.31100000    -18.54800000
      2.47140000     65.68880000      0.11120000    -20.50500000      9.50100000    -18.94500000
      2.47140000     65.68880000      0.11120000    -21.65500000      9.91000000    -17.65100000
      3.53240000   1181.56160000     -0.31190000    -21.50500000      7.56300000    -17.99800000
      1.08900000     51.88160000      0.19330000    -20.49600000      7.68500000    -17.14000000
      3.39970000    359.82400000      0.59730000    -22.87000000     11.05400000    -19.83100000
      2.95990000    878.64000000     -0.56790000    -23.48100000     11.69200000    -19.01300000
      3.25000000    711.28000000     -0.41570000    -22.40800000     11.61500000    -20.94600000
      1.06910000     65.68880000      0.27190000    -21.95200000     11.05300000    -21.65000000
      3.39970000    457.72960000     -0.02520000    -22.54400000     13.04500000    -21.18500000
      2.47140000     65.68880000      0.06980000    -21.94600000     13.55700000    -20.43100000
      2.47140000     65.68880000      0.06980000    -22.13300000     13.24800000    -22.17400000
      3.39970000    359.82400000      0.59730000    -23.95600000     13.56400000    -21.12500000
      2.95990000    878.64000000     -0.56790000    -24.18500000     14.62700000    -20.55000000
      3.25000000    711.28000000     -0.41570000    -24.90000000     12.79300000    -21.65800000
      1.06910000     65.68880000      0.27190000    -24.63900000     11.94200000    -22.13600000
      3.39970000    457.72960000      0.03370000    -26.34700000     13.17100000    -21.62300000
      2.47140000     65.68880000      0.08230000    -26.46500000     14.08500000    -22.20400000
      3.39970000    457.72960000     -0.18250000    -27.18400000     12.07000000    -22.27000000
      2.64950000     65.68880000      0.06030000    -27.08300000     11.15000000    -21.69400000
      2.64950000     65.68880000      0.06030000    -28.23100000     12.37300000    -22.29000000
      2.64950000     65.68880000      0.06030000    -26.83600000     11.90000000    -23.28900000
      3.39970000    359.82400000      0.59730000    -26.87700000     13.44200000    -20.19500000
      2.95990000    878.64000000     -0.56790000    -27.81900000     14.21000000    -20.02200000
      3.25000000    711.28000000     -0.41570000    -26.29400000     12.79500000    -19.18300000
      1.06910000     65.68880000      0.27190000    -25.57700000     12.10500000    -19.36000000
      3.39970000    457.72960000      0.03370000    -26.73000000     12.99700000    -17.81800000
      2.47140000     65.68880000      0.08230000    -27.80900000     12.84200000    -17.79000000
      3.39970000    457.72960000     -0.18250000    -26.07000000     11.99300000    -16.88300000
      2.64950000     65.68880000      0.06030000    -24.99000000     12.14100000    -16.89300000
      2.64950000     65.68880000      0.06030000    -26.44600000     12.13700000    -15.87000000
      2.64950000     65.68880000      0.06030000    -26.30000000     10.98100000    -17.21500000
      3.39970000    359.82400000      0.59730000    -26.46500000     14.43400000    -17.35000000
      2.95990000    878.64000000     -0.56790000    -27.08700000     14.91900000    -16.42300000
      3.25000000    711.28000000     -0.41570000    -25.55100000     15.13400000    -17.99900000
      1.06910000     65.68880000      0.27190000    -24.96800000     14.67700000    -18.68600000
      3.39970000    457.72960000     -0.02490000    -25.32400000     16.55000000    -17.73100000
      2.47140000     65.68880000      0.08430000    -24.92000000     16.68800000    -16.72800000
      3.39970000    457.72960000      0.21170000    -24.30700000     17.10400000    -18.75400000
      2.47140000     65.68880000      0.03520000    -23.96700000     18.07700000    -18.40000000
      2.47140000     65.68880000      0.03520000    -23.46100000     16.41700000    -18.79700000
      3.06650000    880.31360000     -0.65460000    -24.87300000     17.24300000    -20.05600000
      1.24730000     41.84000000      0.42750000    -24.21000000     17.58900000    -20.65800000
      3.39970000    359.82400000      0.59730000    -26.60000000     17.43300000    -17.78400000
      2.95990000    878.64000000     -0.56790000    -26.57200000     18.56300000    -17.30500000
      3.25000000    711.28000000     -0.38210000    -27.69400000     16.98100000    -18.38300000
      1.06910000     65.68880000      0.26810000    -27.79700000     16.01600000    -18.66200000
      3.39970000    457.72960000     -0.24930000    -28.79600000     17.90300000    -18.65500000
      2.47140000     65.68880000      0.10560000    -29.55100000     17.38800000    -19.24900000
      2.47140000     65.68880000      0.10560000    -29.23400000     18.22100000    -17.70900000
      3.39970000    359.82400000      0.72310000    -28.31700000     19.13300000    -19.41900000
      2.95990000    878.64000000     -0.78550000    -27.67800000     18.98400000    -20.44800000
      2.95990000    878.64000000     -0.78550000    -28.57000000     20.26200000    -19.00500000
      3.25000000    711.28000000      0.29430000      6.42800000    -30.33800000     17.02400000
      1.06910000     65.68880000      0.16420000      5.54800000    -29.85400000     16.92000000
      1.06910000     65.68880000      0.16420000      6.35400000    -30.98300000     17.79800000
      1.06910000     65.68880000      0.16420000      6.72500000    -30.66900000     16.11700000
      3.39970000    457.72960000     -0.01000000      7.45300000    -29.34800000     17.43500000
      1.96000000     65.68880000      0.08950000      7.85600000    -29.70100000     18.38400000
      1.96000000     65.68880000      0.08950000      8.23300000    -29.38200000     16.67500000
      3.39970000    359.82400000      0.61630000      6.98200000    -27.90100000     17.60100000
      2.95990000    878.64000000     -0.57220000      5.95100000    -27.50800000     17.01600000
      3.25000000    711.28000000     -0.25480000      7.72900000    -27.10900000     18.40200000
      3.39970000    457.72960000      0.01920000      9.11800000    -27.43600000     18.75300000
      2.47140000     65.68880000      0.03910000      9.67600000    -27.65700000     17.84300000
      2.47140000     65.68880000      0.03910000      9.12800000    -28.30900000     19.40600000
      3.39970000    457.72960000      0.01890000      9.61000000    -26.19700000     19.44500000
      2.64950000     65.68880000      0.02130000     10.41900000    -25.78000000     18.84500000
      2.64950000     65.68880000      0.02130000      9.99700000    -26.49100000     20.42100000
      3.39970000    457.72960000     -0.00700000      8.47900000    -25.22600000     19.58900000
      2.64950000     65.68880000      0.02530000      8.89700000    -24.25400000     19.32600000
      2.64950000     65.68880000      0.02530000      7.98000000    -25.15700000     20.55600000
      3.39970000    457.72960000     -0.02660000      7.47900000    -25.67200000     18.51500000
      2.47140000     65.68880000      0.06410000      6.42700000    -25.49700000     18.73900000
      3.39970000    359.82400000      0.58960000      7.83900000    -24.99400000     17.17700000
      2.95990000    878.64000000     -0.57480000      8.86200000    -25.34300000     16.57200000
      3.25000000    711.28000000     -0.41570000      7.03700000    -24.03200000     16.74300000
      1.06910000     65.68880000      0.27190000      6.22900000    -23.74300000     17.27600000
      3.39970000    457.72960000     -0.02490000      7.25000000    -23.42700000     15.40700000
      2.47140000     65.68880000      0.08430000      8.20200000    -23.74000000     14.97900000
      3.39970000    457.72960000      0.21170000      6.12000000    -23.91300000     14.49500000
      2.47140000     65.68880000      0.03520000      5.25500000    -23.26600000     14.64200000
      2.47140000     65.68880000      0.03520000      6.45500000    -23.84000000     13.46000000
      3.06650000    880.31360000     -0.65460000      5.75900000    -25.26300000     14.78400000
      1.24730000     41.84000000      0.42750000      5.05000000    -25.53700000     14.19700000
      3.39970000    359.82400000      0.59730000      7.35700000    -21.88200000     15.39200000
      2.95990000    878.64000000     -0.56790000      6.41100000    -21.21000000     14.98000000
      3.25000000    711.28000000     -0.25480000      8.51000000    -21.31000000     15.85700000
      3.39970000    457.72960000      0.01920000      9.79600000    -21.98000000     16.12100000
      2.47140000     65.68880000      0.03910000     10.16300000    -22.41500000     15.19100000
      2.47140000     65.68880000      0.03910000      9.63600000    -22.77200000     16.85300000
      3.39970000    457.72960000      0.01890000     10.68500000    -20.89900000     16.63800000
      2.64950000     65.68880000      0.02130000     11.55300000    -20.84400000     15.98100000
      2.64950000     65.68880000      0.02130000     11.00600000    -21.18600000     17.63900000
      3.39970000    457.72960000     -0.00700000      9.93200000    -19.59000000     16.66800000
      2.64950000     65.68880000      0.02530000     10.51400000    -18.86900000     16.09400000
      2.64950000     65.68880000      0.02530000      9.76900000    -19.20600000     17.67500000
      3.39970000    457.72960000     -0.02660000      8.58500000    -19.84000000     15.97900000
      2.47140000     65.68880000      0.06410000      7.76500000    -19.48900000     16.60500000
      3.39970000    359.82400000      0.58960000      8.48400000    -19.20800000     14.62400000
      2.95990000    878.64000000     -0.57480000      9.05300000    -19.74700000     13.62800000
      3.25000000    711.28000000     -0.41570000      7.70000000    -18.13500000     14.50200000
      1.06910000     65.68880000      0.27190000      7.11000000    -17.80200000     15.25100000
      3.39970000    457.72960000      0.01430000      7.60700000    -17.47600000     13.20400000
      2.47140000     65.68880000      0.10480000      7.84200000    -18.18200000     12.40800000
      3.39970000    457.72960000     -0.20410000      6.18600000    -16.95000000     12.98700000
      2.64950000     65.68880000      0.07970000      5.48600000    -17.77900000     13.09300000
      2.64950000     65.68880000      0.07970000      5.96300000    -16.18900000     13.73500000
      3.39970000    359.82400000      0.71300000      6.01400000    -16.35000000     11.63100000
      2.95990000    878.64000000     -0.59310000      6.97600000    -16.09600000     10.90200000
      3.25000000    711.28000000     -0.91910000      4.77000000    -16.10100000     11.26500000
      1.06910000     65.68880000      0.41960000      4.58500000    -15.69500000     10.35900000
      1.06910000     65.68880000      0.41960000      4.00900000    -16.31800000     11.89300000
      3.39970000    359.82400000      0.59730000      8.65300000    -16.41900000     13.14100000
      2.95990000    878.64000000     -0.56790000      8.43800000    -15.28000000     13.60900000
      3.25000000    711.28000000     -0.41570000      9.85700000    -16.78600000     12.63000000
      1.06910000     65.68880000      0.27190000     10.00500000    -17.72300000     12.28500000
      3.39970000    457.72960000     -0.02750000     10.97000000    -15.87900000     12.63700000
      2.47140000     65.68880000      0.11230000     11.01100000    -15.35600000     13.59200000
      3.39970000    457.72960000     -0.00500000     12.31000000    -16.64700000     12.43300000
      2.64950000     65.68880000      0.03390000     12.34400000    -17.28800000     11.55200000
      2.64950000     65.68880000      0.03390000     13.09300000    -15.89200000     12.36300000
      3.39970000    359.82400000     -0.14150000     12.65300000    -17.51400000     13.60900000
      3.39970000    359.82400000     -0.16380000     12.75600000    -18.92500000     13.63800000
      2.51060000     62.76000000      0.20620000     12.49800000    -19.47200000     12.73100000
      3.25000000    711.28000000     -0.34180000     13.18200000    -19.31800000     14.87200000
      1.06910000     65.68880000      0.34120000     13.35600000    -20.27600000     15.14000000
      3.39970000    359.82400000      0.13800000     13.36600000    -18.21800000     15.67600000
      3.39970000    359.82400000     -0.26010000     13.81300000    -18.12200000     17.01000000
      2.59960000     62.76000000      0.15720000     14.02800000    -19.04500000     17.54800000
      3.39970000    359.82400000     -0.11340000     13.95000000    -16.86800000     17.55100000
      2.59960000     62.76000000      0.14170000     14.30000000    -16.75600000     18.57700000
      3.39970000    359.82400000     -0.19720000     13.64900000    -15.72600000     16.81200000
      2.59960000     62.76000000      0.14470000     13.74500000    -14.73900000     17.26600000
      3.39970000    359.82400000     -0.23870000     13.23100000    -15.79700000     15.51700000
      2.59960000     62.76000000      0.17000000     13.11800000    -14.85900000     14.97300000
      3.39970000    359.82400000      0.12430000     13.04600000    -17.06500000     14.91400000
      3.39970000    359.82400000      0.59730000     10.78300000    -14.81200000     11.57800000
      2.95990000    878.64000000     -0.56790000     11.39300000    -13.75300000     11.66900000
      3.25000000    711.28000000     -0.51630000      9.97200000    -15.10400000     10.56000000
      1.06910000     65.68880000      0.29360000      9.57400000    -16.02700000     10.45900000
      3.39970000    457.72960000      0.03810000      9.67900000    -14.12000000      9.55100000
      2.47140000     65.68880000      0.08800000     10.61600000    -13.70600000      9.18000000
      3.39970000    457.72960000     -0.03030000      8.91300000    -14.70300000      8.38500000
      2.64950000     65.68880000     -0.01220000      8.19300000    -15.40500000      8.80500000
      2.64950000     65.68880000     -0.01220000      8.38100000    -13.89600000      7.88100000
      3.39970000    359.82400000      0.79940000      9.80500000    -15.43000000      7.38000000
      2.95990000    878.64000000     -0.80140000     10.99200000    -15.29800000      7.29500000
      2.95990000    878.64000000     -0.80140000      9.24100000    -16.16400000      6.62000000
      3.39970000    359.82400000      0.53660000      8.86900000    -12.98700000     10.23000000
      2.95990000    878.64000000     -0.58190000      9.14800000    -11.84200000      9.91700000
      3.25000000    711.28000000     -0.41570000      7.90500000    -13.30900000     11.08200000
      1.06910000     65.68880000      0.27190000      7.57800000    -14.26400000     11.11500000
      3.39970000    457.72960000      0.03370000      7.18600000    -12.31000000     11.84700000
      2.47140000     65.68880000      0.08230000      6.80900000    -11.61800000     11.09400000
      3.39970000    457.72960000     -0.18250000      6.02600000    -12.89500000     12.58100000
      2.64950000     65.68880000      0.06030000      6.38800000    -13.58400000     13.34400000
      2.64950000     65.68880000      0.06030000      5.45500000    -12.09600000     13.05400000
      2.64950000     65.68880000      0.06030000      5.38600000    -13.43300000     11.88100000
      3.39970000    359.82400000      0.59730000      8.11700000    -11.48800000     12.76800000
      2.95990000    878.64000000     -0.56790000      7.95000000    -10.28700000     12.87200000
      3.25000000    711.28000000     -0.41570000      9.11100000    -12.12600000     13.39800000
      1.06910000     65.68880000      0.27190000      9.15500000    -13.13400000     13.34800000
      3.39970000    457.72960000     -0.08750000     10.05100000    -11.43900000     14.26100000
      2.47140000     65.68880000      0.09690000      9.56000000    -10.71500000     14.91100000
      3.39970000    457.72960000      0.29850000     10.90600000    -12.41400000     15.15100000
      2.64950000     65.68880000     -0.02970000     11.43300000    -13.11100000     14.50000000
      3.39970000    457.72960000     -0.31920000     11.90100000    -11.65400000     15.97800000
      2.64950000     65.68880000      0.07910000     11.37500000    -10.95700000     16.63000000
      2.64950000     65.68880000      0.07910000     12.47900000    -12.35200000     16.58400000
      2.64950000     65.68880000      0.07910000     12.57300000    -11.10100000     15.32200000
      3.39970000    457.72960000     -0.31920000     10.07300000    -13.31900000     16.03600000
      2.64950000     65.68880000      0.07910000      9.42100000    -13.93400000     15.41600000
      2.64950000     65.68880000      0.07910000     10.73100000    -13.96300000     16.62000000
      2.64950000     65.68880000      0.07910000      9.46700000    -12.71200000     16.70900000
      3.39970000    359.82400000      0.59730000     10.91900000    -10.50500000     13.43600000
      2.95990000    878.64000000     -0.56790000     11.18200000     -9.38200000     13.83100000
      3.25000000    711.28000000     -0.41570000     11.35400000    -10.95400000     12.27600000
      1.06910000     65.68880000      0.27190000     11.15300000    -11.90500000     12.00300000
      3.39970000    457.72960000      0.03370000     12.17300000    -10.13700000     11.38700000
      2.47140000     65.68880000      0.08230000     13.00000000     -9.72000000     11.96200000
      3.39970000    457.72960000     -0.18250000     12.74900000    -11.01300000     10.26100000
      2.64950000     65.68880000      0.06030000     11.93300000    -11.43000000      9.67100000
      2.64950000     65.68880000      0.06030000     13.38800000    -10.40700000      9.61900000
      2.64950000     65.68880000      0.06030000     13.33500000    -11.82400000     10.69400000
      3.39970000    359.82400000      0.59730000     11.40400000     -8.99000000     10.80500000
      2.95990000    878.64000000     -0.56790000     11.99400000     -7.92500000     10.63900000
      3.25000000    711.28000000     -0.41570000     10.10700000     -9.18500000     10.54500000
      1.06910000     65.68880000      0.27190000      9.69400000    -10.10600000     10.57200000
      3.39970000    457.72960000     -0.00310000      9.25800000     -8.05000000     10.13900000
      2.47140000     65.68880000      0.08500000      9.64300000     -7.60200000      9.22300000
      3.39970000    457.72960000     -0.00360000      7.82100000     -8.53900000      9.88100000
      2.64950000     65.68880000      0.01710000      7.87100000     -9.25100000      9.05700000
      2.64950000     65.68880000      0.01710000      7.49300000     -9.05200000     10.78500000
      3.39970000    457.72960000     -0.06450000      6.82300000     -7.42500000      9.53400000
      2.64950000     65.68880000      0.03520000      5.86400000     -7.85200000      9.24100000
      2.64950000     65.68880000      0.03520000      6.70200000     -6.85900000     10.45800000
      3.39970000    359.82400000      0.69510000      7.27700000     -6.49500000      8.46200000
      2.95990000    878.64000000     -0.60860000      7.82800000     -6.92400000      7.46900000
      3.25000000    711.28000000     -0.94070000      6.97600000     -5.18000000      8.62700000
      1.06910000     65.68880000      0.42510000      7.26100000     -4.50800000      7.92900000
      1.06910000     65.68880000      0.42510000      6.46800000     -4.88000000      9.44700000
      3.39970000    359.82400000      0.59730000      9.30800000     -6.94900000     11.24000000
      2.95990000    878.64000000     -0.56790000      9.50900000     -5.74500000     10.98100000
      3.25000000    711.28000000     -0.41570000      9.20500000     -7.39500000     12.45700000
      1.06910000     65.68880000      0.27190000      9.03600000     -8.38400000     12.57600000
      3.39970000    457.72960000      0.02130000      9.27000000     -6.58800000     13.60400000
      2.47140000     65.68880000      0.11240000      8.51700000     -5.80000000     13.63100000
      3.39970000    457.72960000     -0.12310000      8.97100000     -7.58000000     14.70700000
      2.47140000     65.68880000      0.11120000      8.78600000     -8.59200000     14.34800000
      2.47140000     65.68880000      0.11120000      9.72800000     -7.60600000     15.49100000
      3.53240000   1181.56160000     -0.31190000      7.49300000     -7.06300000     15.47900000
      1.08900000     51.88160000      0.19330000      7.44800000     -8.05100000     16.36900000
      3.39970000    359.82400000      0.59730000     10.58300000     -5.85500000     13.83800000
      2.95990000    878.64000000     -0.56790000     10.62800000     -4.62500000     14.06900000
      3.25000000    711.28000000     -0.51630000     11.65300000     -6.61100000     13.71400000
      1.06910000     65.68880000      0.29360000     11.53300000     -7.57900000     13.45200000
      3.39970000    457.72960000      0.03970000     13.02100000     -6.12300000     13.98800000
      2.47140000     65.68880000      0.11050000     13.00700000     -5.49500000     14.87900000
      3.39970000    457.72960000      0.05600000     13.97500000     -7.25700000     14.21600000
      2.64950000     65.68880000     -0.01730000     13.77800000     -7.97400000     13.41900000
      2.64950000     65.68880000     -0.01730000     14.97200000     -6.83500000     14.08600000
      3.39970000    457.72960000      0.01360000     13.89400000     -7.96300000     15.56600000
      2.64950000     65.68880000     -0.04250000     12.89600000     -8.38300000     15.69000000
      2.64950000     65.68880000     -0.04250000     14.61700000     -8.77200000     15.45800000
      3.39970000    359.82400000      0.80540000     14.24100000     -7.14200000     16.76500000
      2.95990000    878.64000000     -0.81880000     14.77300000     -6.01700000     16.65700000
      2.95990000    878.64000000     -0.81880000     13.89100000     -7.61200000     17.90500000
      3.39970000    359.82400000      0.53660000     13.62000000     -5.24400000     12.90000000
      2.95990000    878.64000000     -0.58190000     14.28500000     -4.23900000     13.20000000
      3.25000000    711.28000000     -0.41570000     13.40600000     -5.59500000     11.67700000
      1.06910000     65.68880000      0.27190000     12.71800000     -6.30600000     11.47300000
      3.39970000    457.72960000     -0.02490000     14.09800000     -4.95100000     10.55000000
      2.47140000     65.68880000      0.08430000     14.64700000     -4.07300000     10.89100000
      3.39970000    457.72960000      0.21170000     15.11400000     -5.96500000      9.92400000
      2.47140000     65.68880000      0.03520000     15.64800000     -5.44100000      9.13100000
      2.47140000     65.68880000      0.03520000     15.81600000     -6.24800000     10.70900000
      3.06650000    880.31360000     -0.65460000     14.48100000     -7.17500000      9.37300000
      1.24730000     41.84000000      0.42750000     15.15600000     -7.75100000      9.00700000
      3.39970000    359.82400000      0.59730000     13.19800000     -4.55900000      9.44200000
      2.95990000    878.64000000     -0.56790000     13.67700000     -4.17200000      8.31400000
      3.25000000    711.28000000     -0.41570000     11.93500000     -4.78300000      9.55800000
      1.06910000     65.68880000      0.27190000     11.53800000     -5.10100000     10.43100000
      3.39970000    457.72960000     -0.02520000     11.01000000     -4.57500000      8.38500000
      2.47140000     65.68880000      0.06980000      9.98700000     -4.53200000      8.75900000
      2.47140000     65.68880000      0.06980000     11.26400000     -3.62600000      7.91200000
      3.39970000    359.82400000      0.59730000     11.11300000     -5.69200000      7.34600000
      2.95990000    878.64000000     -0.56790000     10.81200000     -5.46500000      6.20000000
      3.25000000    711.28000000     -0.41570000     11.57400000     -6.87800000      7.71100000
      1.06910000     65.68880000      0.27190000     11.81700000     -7.02000000      8.68100000
      3.39970000    457.72960000     -0.02520000     11.74200000     -7.94800000      6.82000000
      2.47140000     65.68880000      0.06980000     11.78700000     -8.85000000      7.43000000
      2.47140000     65.68880000      0.06980000     10.84600000     -7.97400000      6.20000000
      3.39970000    359.82400000      0.59730000     12.99100000     -7.89700000      5.90100000
      2.95990000    878.64000000     -0.56790000     13.01800000     -8.53100000      4.87800000
      3.25000000    711.28000000     -0.41570000     14.00700000     -7.17000000      6.29700000
      1.06910000     65.68880000      0.27190000     13.94600000     -6.63000000      7.14800000
      3.39970000    457.72960000      0.01430000     15.21900000     -7.08300000      5.51600000
      2.47140000     65.68880000      0.10480000     15.03000000     -7.41600000      4.49500000
      3.39970000    457.72960000     -0.20410000     15.70900000     -5.65300000      5.47500000
      2.64950000     65.68880000      0.07970000     14.95500000     -4.97900000      5.06900000
      2.64950000     65.68880000      0.07970000     15.92400000     -5.37700000      6.50800000
      3.39970000    359.82400000      0.71300000     16.97500000     -5.50600000      4.66300000
      2.95990000    878.64000000     -0.59310000     17.40800000     -6.44800000      3.97700000
      3.25000000    711.28000000     -0.91910000     17.53200000     -4.32600000      4.67200000
      1.06910000     65.68880000      0.41960000     18.38000000     -4.16700000      4.14800000
      1.06910000     65.68880000      0.41960000     17.11200000     -3.57700000      5.20300000
      3.39970000    359.82400000      0.59730000     16.30100000     -7.99100000      6.09300000
      2.95990000    878.64000000     -0.56790000     17.00800000     -7.59500000      7.08300000
      3.25000000    711.28000000     -0.41570000     16.53500000     -9.11200000      5.48100000
      1.06910000     65.68880000      0.27190000     16.02700000     -9.31300000      4.63200000
      3.39970000    457.72960000     -0.02750000     17.44400000    -10.14600000      6.01500000
      2.47140000     65.68880000      0.11230000     17.28600000    -10.22600000      7.09100000
      3.39970000    457.72960000     -0.00500000     17.21500000    -11.53100000      5.38000000
      2.64950000     65.68880000      0.03390000     17.09000000    -11.35100000      4.31200000
      2.64950000     65.68880000      0.03390000     17.98900000    -12.28300000      5.53300000
      3.39970000    359.82400000     -0.14150000     15.94600000    -12.12400000      5.86100000
      3.39970000    359.82400000     -0.16380000     14.72300000    -12.07100000      5.24000000
      2.51060000     62.76000000      0.20620000     14.65000000    -11.57300000      4.27300000
      3.25000000    711.28000000     -0.34180000     13.80300000    -12.70500000      6.03800000
      1.06910000     65.68880000      0.34120000     12.91300000    -13.03700000      5.69500000
      3.39970000    359.82400000      0.13800000     14.37300000    -13.05000000      7.23600000
      3.39970000    359.82400000     -0.26010000     13.85100000    -13.80400000      8.27800000
      2.59960000     62.76000000      0.15720000     12.81000000    -14.12100000      8.21900000
      3.39970000    359.82400000     -0.11340000     14.66700000    -14.09700000      9.30000000
      2.59960000     62.76000000      0.14170000     14.26500000    -14.62300000     10.16600000
      3.39970000    359.82400000     -0.19720000     16.02600000    -13.74600000      9.28800000
      2.59960000     62.76000000      0.14470000     16.70100000    -13.99100000     10.10900000
      3.39970000    359.82400000     -0.23870000     16.54100000    -13.06900000      8.21000000
      2.59960000     62.76000000      0.17000000     17.59500000    -12.79300000      8.25100000
      3.39970000    359.82400000      0.12430000     15.72400000    -12.75400000      7.14800000
      3.39970000    359.82400000      0.59730000     18.86400000     -9.69100000      5.83100000
      2.95990000    878.64000000     -0.56790000     19.77300000    -10.16700000      6.53000000
      3.25000000    711.28000000     -0.41570000     19.09600000     -8.71300000      4.92000000
      1.06910000     65.68880000      0.27190000     18.38100000     -8.42900000      4.26500000
      3.39970000    457.72960000      0.03370000     20.43500000     -8.11600000      4.79300000
      2.47140000     65.68880000      0.08230000     21.11800000     -8.83900000      5.23800000
      3.39970000    457.72960000     -0.18250000     20.76700000     -7.98300000      3.29000000
      2.64950000     65.68880000      0.06030000     20.09700000     -7.25500000      2.83200000
      2.64950000     65.68880000      0.06030000     21.79800000     -7.65000000      3.17300000
      2.64950000     65.68880000      0.06030000     20.64000000     -8.95000000      2.80200000
      3.39970000    359.82400000      0.59730000     20.65100000     -6.79800000      5.49300000
      2.95990000    878.64000000     -0.56790000     21.59500000     -6.07000000      5.20600000
      3.25000000    711.28000000     -0.41570000     19.79600000     -6.43600000      6.46600000
      1.06910000     65.68880000      0.27190000     19.05200000     -7.05700000      6.75000000
      3.39970000    457.72960000      0.03370000     19.90300000     -5.15200000      7.11900000
      2.47140000     65.68880000      0.08230000     19.69900000     -4.36000000      6.39900000
      3.39970000    457.72960000     -0.18250000     18.86300000     -5.07600000      8.23500000
      2.64950000     65.68880000      0.06030000     19.05900000     -5.85700000      8.96900000
      2.64950000     65.68880000      0.06030000     18.91900000     -4.10100000      8.71900000
      2.64950000     65.68880000      0.06030000     17.86700000     -5.21500000      7.81400000
      3.39970000    359.82400000      0.59730000     21.30500000     -4.90300000      7.72900000
      2.95990000    878.64000000     -0.56790000     21.78700000     -5.69600000      8.54100000
      3.25000000    711.28000000     -0.41570000     21.86700000     -3.74900000      7.42900000
      1.06910000     65.68880000      0.27190000     21.42500000     -3.17600000      6.72400000
      3.39970000    457.72960000      0.01430000     23.13200000     -3.30000000      7.98800000
      2.47140000     65.68880000      0.10480000     23.15900000     -3.55400000      9.04800000
      3.39970000    457.72960000     -0.20410000     24.34800000     -3.95400000      7.29300000
      2.64950000     65.68880000      0.07970000     24.21700000     -5.03100000      7.39900000
      2.64950000     65.68880000      0.07970000     24.38700000     -3.69600000      6.23500000
      3.39970000    359.82400000      0.71300000     25.66100000     -3.56100000      7.93600000
      2.95990000    878.64000000     -0.59310000     25.71700000     -2.83200000      8.95700000
      3.25000000    711.28000000     -0.91910000     26.72900000     -3.97600000      7.32000000
      1.06910000     65.68880000      0.41960000     27.64100000     -3.75200000      7.69100000
      1.06910000     65.68880000      0.41960000     26.64100000     -4.52000000      6.47400000
      3.39970000    359.82400000      0.59730000     23.15300000     -1.82000000      7.90200000
      2.95990000    878.64000000     -0.56790000     23.77800000     -1.23000000      7.01100000
      3.25000000    711.28000000     -0.41570000     22.39400000     -1.16000000      8.76700000
      1.06910000     65.68880000      0.27190000     21.96000000     -1.67200000      9.52200000
      3.39970000    457.72960000     -0.03890000     22.11800000      0.25000000      8.65000000
      2.47140000     65.68880000      0.10070000     22.22400000      0.57700000      7.61500000
      3.39970000    457.72960000      0.36540000     20.70200000      0.58100000      9.12500000
      2.47140000     65.68880000      0.00430000     20.53900000      1.65500000      9.03600000
      3.39970000    457.72960000     -0.24380000     19.71400000     -0.13100000      8.31500000
      2.64950000     65.68880000      0.06420000     19.87600000     -1.20500000      8.40400000
      2.64950000     65.68880000      0.06420000     18.71100000      0.11500000      8.66500000
      2.64950000     65.68880000      0.06420000     19.81700000      0.16600000      7.27100000
      3.06650000    880.31360000     -0.67610000     20.56300000      0.21300000     10.52900000
      1.24730000     41.84000000      0.41020000     19.67500000      0.42000000     10.82800000
      3.39970000    359.82400000      0.59730000     23.13100000      1.07000000      9.44400000
      2.95990000    878.64000000     -0.56790000     23.11700000      2.32300000      9.39900000
      3.25000000    711.28000000     -0.41570000     24.00800000      0.41800000     10.20900000
      1.06910000     65.68880000      0.27190000     24.03200000     -0.59100000     10.23900000
      3.39970000    457.72960000     -0.02520000     24.97500000      1.16800000     11.03900000
      2.47140000     65.68880000      0.06980000     25.88400000      0.57200000     11.11800000
      2.47140000     65.68880000      0.06980000     25.19900000      2.10600000     10.53000000
      3.39970000    359.82400000      0.59730000     24.45600000      1.47700000     12.45000000
      2.95990000    878.64000000     -0.56790000     25.01800000      2.29000000     13.15500000
      3.25000000    711.28000000     -0.41570000     23.47000000      0.76000000     12.91800000
      1.06910000     65.68880000      0.27190000     23.03400000      0.10600000     12.28400000
      3.39970000    457.72960000      0.01430000     22.94200000      0.86100000     14.28900000
      2.47140000     65.68880000      0.10480000     23.18600000      1.83900000     14.70400000
      3.39970000    457.72960000     -0.20410000     21.42600000      0.69100000     14.30000000
      2.64950000     65.68880000      0.07970000     21.06200000      0.81000000     15.32000000
      2.64950000     65.68880000      0.07970000     20.99800000      1.46900000     13.66800000
      3.39970000    359.82400000      0.71300000     20.97400000     -0.65900000     13.77900000
      2.95990000    878.64000000     -0.59310000     21.76300000     -1.50500000     13.37300000
      3.25000000    711.28000000     -0.91910000     19.68500000     -0.88200000     13.80000000
      1.06910000     65.68880000      0.41960000     19.32300000     -1.76300000     13.46600000
      1.06910000     65.68880000      0.41960000     19.05800000     -0.17200000     14.15000000
      3.39970000    359.82400000      0.59730000     23.51500000     -0.16200000     15.26400000
      2.95990000    878.64000000     -0.56790000     22.92900000     -0.39700000     16.31300000
      3.25000000    711.28000000     -0.41570000     24.56200000     -0.85000000     14.87300000
      1.06910000     65.68880000      0.27190000     24.95900000     -0.70500000     13.95600000
      3.39970000    457.72960000     -0.02520000     25.18300000     -1.84300000     15.74900000
      2.47140000     65.68880000      0.06980000     26.22800000     -1.92700000     15.44900000
      2.47140000     65.68880000      0.06980000     25.12700000     -1.45400000     16.76600000
      3.39970000    359.82400000      0.59730000     24.54300000     -3.22900000     15.71200000
      2.95990000    878.64000000     -0.56790000     24.95800000     -4.09700000     16.47900000
      3.25000000    711.28000000     -0.34790000     23.52600000     -3.41200000     14.85600000
      1.06910000     65.68880000      0.27470000     23.22600000     -2.62500000     14.29800000
      3.39970000    457.72960000     -0.24000000     22.80500000     -4.62700000     14.74600000
      2.47140000     65.68880000      0.14260000     23.36700000     -5.40700000     15.26000000
      3.39970000    457.72960000     -0.00940000     21.39800000     -4.55600000     15.35200000
      2.64950000     65.68880000      0.03620000     20.82900000     -3.88700000     14.70700000
      2.64950000     65.68880000      0.03620000     20.99100000     -5.56400000     15.27900000
      3.39970000    457.72960000      0.01870000     21.30200000     -4.07300000     16.79500000
      2.64950000     65.68880000      0.01030000     21.78400000     -4.80100000     17.44800000
      2.64950000     65.68880000      0.01030000     21.81000000     -3.11300000     16.88500000
      3.39970000    457.72960000     -0.04790000     19.84100000     -3.91500000     17.20100000
      2.64950000     65.68880000      0.06210000     19.27700000     -3.70100000     16.29300000
      2.64950000     65.68880000      0.06210000     19.51700000     -4.87100000     17.61300000
      3.39970000    457.72960000     -0.01430000     19.59700000     -2.81900000     18.21600000
      1.96000000     65.68880000      0.11350000     19.25300000     -3.29100000     19.13600000
      1.96000000     65.68880000      0.11350000     20.54800000     -2.31900000     18.39800000
      3.25000000    711.28000000     -0.38540000     18.56200000     -1.79200000     17.75200000
      1.06910000     65.68880000      0.34000000     17.68000000     -2.25500000     17.58300000
      1.06910000     65.68880000      0.34000000     18.44200000     -1.08900000     18.46700000
      1.06910000     65.68880000      0.34000000     18.88100000     -1.35400000     16.89900000
      3.39970000    359.82400000      0.73410000     22.72300000     -5.05200000     13.28200000
      2.95990000    878.64000000     -0.58940000     22.88800000     -4.23400000     12.34400000
      3.25000000    711.28000000     -0.41570000     22.58700000     -6.36000000     13.09200000
      1.06910000     65.68880000      0.27190000     22.43400000     -6.97900000     13.87500000
      3.39970000    457.72960000     -0.00140000     22.80300000     -6.94700000     11.78300000
      2.47140000     65.68880000      0.08760000     22.63800000     -6.19700000     11.01000000
      3.39970000    457.72960000     -0.01520000     24.25200000     -7.47400000     11.66000000
      2.64950000     65.68880000      0.02950000     24.32700000     -8.31000000     12.35500000
      2.64950000     65.68880000      0.02950000     24.40200000     -7.83400000     10.64200000
      3.39970000    359.82400000     -0.00110000     25.30800000     -6.44900000     11.99100000
      3.39970000    359.82400000     -0.19060000     25.74900000     -6.23400000     13.31700000
      2.59960000     62.76000000      0.16990000     25.32000000     -6.83000000     14.12200000
      3.39970000    359.82400000     -0.23410000     26.71100000     -5.28300000     13.59900000
      2.59960000     62.76000000      0.16560000     27.06400000     -5.16300000     14.62300000
      3.39970000    359.82400000      0.32260000     27.31100000     -4.57600000     12.57400000
      3.06650000    880.31360000     -0.55790000     28.16700000     -3.62000000     12.89300000
      1.24730000     41.84000000      0.39920000     28.28100000     -3.52000000     13.84100000
      3.39970000    359.82400000     -0.23410000     26.92300000     -4.78700000     11.26500000
      2.59960000     62.76000000      0.16560000     27.43100000     -4.28600000     10.44100000
      3.39970000    359.82400000     -0.19060000     25.85100000     -5.66700000     11.00200000
      2.59960000     62.76000000      0.16990000     25.43700000     -5.73600000      9.99600000
      3.39970000    359.82400000      0.59730000     21.80100000     -7.99400000     11.40400000
      2.95990000    878.64000000     -0.56790000     21.44900000     -8.88600000     12.18800000
      3.25000000    711.28000000     -0.41570000     21.29900000     -7.91300000     10.16600000
      1.06910000     65.68880000      0.27190000     21.51000000     -7.08800000      9.62400000
      3.39970000    457.72960000     -0.02520000     20.48900000     -8.91900000      9.57400000
      2.47140000     65.68880000      0.06980000     20.57700000     -8.85500000      8.48900000
      2.47140000     65.68880000      0.06980000     20.83500000     -9.89700000      9.90800000
      3.39970000    359.82400000      0.59730000     19.02600000     -8.75000000      9.96400000
      2.95990000    878.64000000     -0.56790000     18.63700000     -7.74700000     10.60700000
      3.25000000    711.28000000     -0.41570000     18.23700000     -9.72600000      9.57500000
      1.06910000     65.68880000      0.27190000     18.62900000    -10.58500000      9.21500000
      3.39970000    457.72960000     -0.02520000     16.77900000     -9.60500000      9.64900000
      2.47140000     65.68880000      0.06980000     16.47900000     -8.65200000      9.21300000
      2.47140000     65.68880000      0.06980000     16.32500000    -10.42100000      9.08600000
      3.39970000    359.82400000      0.59730000     16.29600000     -9.66500000     11.07500000
      2.95990000    878.64000000     -0.56790000     15.23300000     -9.03500000     11.41100000
      3.25000000    711.28000000     -0.41570000     17.05000000    -10.38600000     11.91400000
      1.06910000     65.68880000      0.27190000     17.82100000    -10.95400000     11.59300000
      3.39970000    457.72960000     -0.05180000     16.67900000    -10.45700000     13.32300000
      2.47140000     65.68880000      0.09220000     15.65500000    -10.11000000     13.46200000
      3.39970000    457.72960000     -0.11020000     16.77300000    -11.89300000     13.79900000
      2.64950000     65.68880000      0.04570000     17.81300000    -12.19300000     13.66900000
      2.64950000     65.68880000      0.04570000     16.51400000    -11.93100000     14.85700000
      3.39970000    457.72960000      0.35310000     15.87300000    -12.83900000     13.02400000
      2.64950000     65.68880000     -0.03610000     15.98500000    -12.68800000     11.95000000
      3.39970000    457.72960000     -0.41210000     16.30500000    -14.24900000     13.38400000
      2.64950000     65.68880000      0.10000000     16.19300000    -14.40100000     14.45700000
      2.64950000     65.68880000      0.10000000     15.68400000    -14.96800000     12.84900000
      2.64950000     65.68880000      0.10000000     17.34900000    -14.39200000     13.10400000
      3.39970000    457.72960000     -0.41210000     14.41400000    -12.63800000     13.33600000
      2.64950000     65.68880000      0.10000000     14.12500000    -11.61800000     13.08100000
      2.64950000     65.68880000      0.10000000     13.81700000    -13.34000000     12.75400000
      2.64950000     65.68880000      0.10000000     14.24200000    -12.80900000     14.39900000
      3.39970000    359.82400000      0.59730000     17.50500000     -9.49800000     14.20100000
      2.95990000    878.64000000     -0.56790000     17.39700000     -9.49800000     15.45100000
      3.25000000    711.28000000     -0.41570000     18.31200000     -8.62900000     13.56300000
      1.06910000     65.68880000      0.27190000     18.49400000     -8.75800000     12.57800000
      3.39970000    457.72960000     -0.00310000     19.04800000     -7.57700000     14.27500000
      2.47140000     65.68880000      0.08500000     19.77100000     -7.09500000     13.61700000
      3.39970000    457.72960000     -0.00360000     18.02500000     -6.50700000     14.76000000
      2.64950000     65.68880000      0.01710000     17.20400000     -6.99700000     15.28400000
      2.64950000     65.68880000      0.01710000     18.51900000     -5.80800000     15.43400000
      3.39970000    457.72960000     -0.06450000     17.47100000     -5.74000000     13.53800000
      2.64950000     65.68880000      0.03520000     17.04900000     -6.39600000     12.77700000
      2.64950000     65.68880000      0.03520000     16.68200000     -5.11700000     13.95800000
      3.39970000    359.82400000      0.69510000     18.48500000     -4.85500000     12.89500000
      2.95990000    878.64000000     -0.60860000     19.05700000     -5.14500000     11.81800000
      3.25000000    711.28000000     -0.94070000     18.65000000     -3.70700000     13.46400000
      1.06910000     65.68880000      0.42510000     19.32000000     -3.05200000     13.08700000
      1.06910000     65.68880000      0.42510000     18.10900000     -3.47000000     14.28300000
      3.39970000    359.82400000      0.59730000     19.94000000     -8.02700000     15.39600000
      2.95990000    878.64000000     -0.56790000     19.86000000     -7.52800000     16.54100000
      3.25000000    711.28000000     -0.41570000     20.80600000     -8.98900000     15.08200000
      1.06910000     65.68880000      0.27190000     20.87000000     -9.28600000     14.11900000
      3.39970000    457.72960000     -0.00240000     21.72000000     -9.56800000     16.04000000
      2.47140000     65.68880000      0.09780000     21.17500000     -9.89100000     16.92700000
      3.39970000    457.72960000     -0.03430000     22.42400000    -10.78100000     15.43000000
      2.64950000     65.68880000      0.02950000     22.42700000    -10.62100000     14.35200000
      2.64950000     65.68880000      0.02950000     23.44700000    -10.92200000     15.77900000
      3.39970000    359.82400000      0.01180000     21.71000000    -12.06900000     15.66900000
      3.39970000    359.82400000     -0.12560000     21.80800000    -12.69800000     16.90500000
      2.59960000     62.76000000      0.13300000     22.36800000    -12.21800000     17.70700000
      3.39970000    359.82400000     -0.17040000     21.19100000    -13.94500000     17.12500000
      2.59960000     62.76000000      0.14300000     21.29200000    -14.43900000     18.09200000
      3.39970000    359.82400000     -0.10720000     20.45600000    -14.54500000     16.11300000
      2.59960000     62.76000000      0.12970000     19.94500000    -15.49300000     16.28000000
      3.39970000    359.82400000     -0.17040000     20.37700000    -13.92800000     14.88600000
      2.59960000     62.76000000      0.14300000     19.80400000    -14.38600000     14.07900000
      3.39970000    359.82400000     -0.12560000     21.03800000    -12.70200000     14.67300000
      2.59960000     62.76000000      0.13300000     21.01900000    -12.23600000     13.68800000
      3.39970000    359.82400000      0.59730000     22.81100000     -8.56100000     16.34700000
      2.95990000    878.64000000     -0.56790000     23.31900000     -7.86000000     15.44800000
      3.25000000    711.28000000     -0.34790000     23.19600000     -8.51600000     17.60900000
      1.06910000     65.68880000      0.27470000     22.59800000     -8.90100000     18.32600000
      3.39970000    457.72960000     -0.24000000     24.46300000     -7.88400000     18.02000000
      2.47140000     65.68880000      0.14260000     24.62400000     -6.97400000     17.44200000
      3.39970000    457.72960000     -0.00940000     24.42800000     -7.51700000     19.51500000
      2.64950000     65.68880000      0.03620000     23.95100000     -8.32400000     20.07100000
      2.64950000     65.68880000      0.03620000     25.44800000     -7.38200000     19.87500000
      3.39970000    457.72960000      0.01870000     23.64400000     -6.22900000     19.71700000
      2.64950000     65.68880000      0.01030000     24.22800000     -5.41800000     19.28200000
      2.64950000     65.68880000      0.01030000     22.70300000     -6.32900000     19.17600000
      3.39970000    457.72960000     -0.04790000     23.35600000     -5.91900000     21.18800000
      2.64950000     65.68880000      0.06210000     22.89700000     -6.78900000     21.65800000
      2.64950000     65.68880000      0.06210000     24.29000000     -5.68300000     21.69700000
      3.39970000    457.72960000     -0.01430000     22.40200000     -4.72100000     21.28800000
      1.96000000     65.68880000      0.11350000     22.97700000     -3.82500000     21.05300000
      1.96000000     65.68880000      0.11350000     21.62400000     -4.86000000     20.53800000
      3.25000000    711.28000000     -0.38540000     21.77700000     -4.57000000     22.62700000
      1.06910000     65.68880000      0.34000000     22.49800000     -4.44100000     23.32200000
      1.06910000     65.68880000      0.34000000     21.16400000     -3.76700000     22.62400000
      1.06910000     65.68880000      0.34000000     21.24400000     -5.40000000     22.84500000
      3.39970000    359.82400000      0.73410000     25.63500000     -8.79900000     17.75300000
      2.95990000    878.64000000     -0.58940000     25.49400000    -10.01700000     17.84000000
      3.25000000    711.28000000     -0.25480000     26.79100000     -8.24400000     17.31900000
      3.39970000    457.72960000      0.01920000     27.16900000     -6.86600000     17.05500000
      2.47140000     65.68880000      0.03910000     27.34500000     -6.34900000     17.99800000
      2.47140000     65.68880000      0.03910000     26.36800000     -6.36600000     16.51100000
      3.39970000    457.72960000      0.01890000     28.43700000     -7.00900000     16.22100000
      2.64950000     65.68880000      0.02130000     29.08600000     -6.14700000     16.37600000
      2.64950000     65.68880000      0.02130000     28.18300000     -7.08700000     15.16400000
      3.39970000    457.72960000     -0.00700000     29.07100000     -8.25900000     16.70700000
      2.64950000     65.68880000      0.02530000     29.65100000     -8.10300000     17.61700000
      2.64950000     65.68880000      0.02530000     29.70900000     -8.70200000     15.94200000
      3.39970000    457.72960000     -0.02660000     27.88100000     -9.18600000     16.99900000
      2.47140000     65.68880000      0.06410000     27.56500000     -9.73300000     16.11100000
      3.39970000    359.82400000      0.58960000     28.24300000    -10.18900000     18.12100000
      2.95990000    878.64000000     -0.57480000     28.57400000    -11.34800000     17.82600000
      3.25000000    711.28000000     -0.41570000     28.24400000     -9.76200000     19.37600000
      1.06910000     65.68880000      0.27190000     28.01100000     -8.80500000     19.60100000
      3.39970000    457.72960000      0.03370000     28.70400000    -10.65100000     20.47200000
      2.47140000     65.68880000      0.08230000     29.66000000    -11.07300000     20.16300000
      3.39970000    457.72960000     -0.18250000     28.90700000     -9.88600000     21.78200000
      2.64950000     65.68880000      0.06030000     27.95600000     -9.46500000     22.10900000
      2.64950000     65.68880000      0.06030000     29.28500000    -10.56600000     22.54600000
      2.64950000     65.68880000      0.06030000     29.62500000     -9.08100000     21.62600000
      3.39970000    359.82400000      0.59730000     27.73500000    -11.83100000     20.64300000
      2.95990000    878.64000000     -0.56790000     28.16600000    -12.94500000     20.90800000
      3.25000000    711.28000000     -0.41570000     26.43900000    -11.60000000     20.49500000
      1.06910000     65.68880000      0.27190000     26.10900000    -10.65800000     20.34200000
      3.39970000    457.72960000     -0.03890000     25.44700000    -12.68200000     20.57100000
      2.47140000     65.68880000      0.10070000     25.60000000    -13.25200000     21.48700000
      3.39970000    457.72960000      0.36540000     23.98500000    -12.13600000     20.56100000
      2.47140000     65.68880000      0.00430000     23.80700000    -11.69700000     19.57900000
      3.39970000    457.72960000     -0.24380000     22.92100000    -13.22000000     20.84100000
      2.64950000     65.68880000      0.06420000     23.09800000    -13.65900000     21.82300000
      2.64950000     65.68880000      0.06420000     21.92800000    -12.77000000     20.81900000
      2.64950000     65.68880000      0.06420000     22.98400000    -13.99700000     20.07900000
      3.06650000    880.31360000     -0.67610000     23.85100000    -11.12800000     21.55000000
      1.24730000     41.84000000      0.41020000     22.95200000    -10.79200000     21.54400000
      3.39970000    359.82400000      0.59730000     25.62400000    -13.63600000     19.39300000
      2.95990000    878.64000000     -0.56790000     25.57300000    -14.87900000     19.56400000
      3.25000000    711.28000000     -0.41570000     25.79200000    -13.07800000     18.19500000
      1.06910000     65.68880000      0.27190000     25.80300000    -12.07300000     18.10000000
      3.39970000    457.72960000     -0.02750000     25.95200000    -13.89100000     16.98800000
      2.47140000     65.68880000      0.11230000     25.05100000    -14.47800000     16.80900000
      3.39970000    457.72960000     -0.00500000     26.18900000    -13.00200000     15.80200000
      2.64950000     65.68880000      0.03390000     25.31600000    -12.35600000     15.70900000
      2.64950000     65.68880000      0.03390000     27.07100000    -12.39400000     16.00300000
      3.39970000    359.82400000     -0.14150000     26.39800000    -13.62500000     14.47700000
      3.39970000    359.82400000     -0.16380000     27.56200000    -13.72300000     13.82200000
      2.51060000     62.76000000      0.20620000     28.44800000    -13.34700000     14.33400000
      3.25000000    711.28000000     -0.34180000     27.36700000    -14.30300000     12.59500000
      1.06910000     65.68880000      0.34120000     28.08200000    -14.44500000     11.89600000
      3.39970000    359.82400000      0.13800000     26.05800000    -14.63300000     12.46100000
      3.39970000    359.82400000     -0.26010000     25.40500000    -15.22300000     11.42400000
      2.59960000     62.76000000      0.15720000     25.97200000    -15.49700000     10.53400000
      3.39970000    359.82400000     -0.11340000     24.05500000    -15.43700000     11.57200000
      2.59960000     62.76000000      0.14170000     23.50400000    -15.92300000     10.76700000
      3.39970000    359.82400000     -0.19720000     23.37800000    -15.05500000     12.70900000
      2.59960000     62.76000000      0.14470000     22.30700000    -15.22700000     12.81600000
      3.39970000    359.82400000     -0.23870000     24.04500000    -14.43800000     13.75400000
      2.59960000     62.76000000      0.17000000     23.47000000    -14.12600000     14.62600000
      3.39970000    359.82400000      0.12430000     25.40500000    -14.22600000     13.63400000
      3.39970000    359.82400000      0.59730000     27.14400000    -14.83500000     17.18600000
      2.95990000    878.64000000     -0.56790000     26.99000000    -16.04000000     17.07500000
      3.25000000    711.28000000     -0.41570000     28.27800000    -14.28200000     17.58100000
      1.06910000     65.68880000      0.27190000     28.32500000    -13.28400000     17.73200000
      3.39970000    457.72960000      0.03370000     29.52100000    -15.08000000     17.75200000
      2.47140000     65.68880000      0.08230000     29.69400000    -15.62100000     16.82100000
      3.39970000    457.72960000     -0.18250000     30.73400000    -14.15500000     18.02000000
      2.64950000     65.68880000      0.06030000     30.58000000    -13.61400000     18.95300000
      2.64950000     65.68880000      0.06030000     31.64000000    -14.75600000     18.09500000
      2.64950000     65.68880000      0.06030000     30.83700000    -13.44400000     17.20100000
      3.39970000    359.82400000      0.59730000     29.40500000    -16.11100000     18.87900000
      2.95990000    878.64000000     -0.56790000     29.83900000    -17.24800000     18.72900000
      3.25000000    711.28000000     -0.41570000     28.79300000    -15.70300000     19.98400000
      1.06910000     65.68880000      0.27190000     28.53100000    -14.73100000     20.07000000
      3.39970000    457.72960000      0.03370000     28.57000000    -16.57200000     21.11000000
      2.47140000     65.68880000      0.08230000     29.55100000    -16.90700000     21.44700000
      3.39970000    457.72960000     -0.18250000     27.87900000    -15.83700000     22.26600000
      2.64950000     65.68880000      0.06030000     26.89100000    -15.50400000     21.94700000
      2.64950000     65.68880000      0.06030000     27.77700000    -16.51100000     23.11700000
      2.64950000     65.68880000      0.06030000     28.47700000    -14.97300000     22.55700000
      3.39970000    359.82400000      0.59730000     27.77800000    -17.81400000     20.71400000
      2.95990000    878.64000000     -0.56790000     28.00800000    -18.88000000     21.30100000
      3.25000000    711.28000000     -0.41570000     26.84400000    -17.68400000     19.76000000
      1.06910000     65.68880000      0.27190000     26.62300000    -16.77200000     19.38700000
      3.39970000    457.72960000     -0.00240000     25.99200000    -18.81200000     19.38500000
      2.47140000     65.68880000      0.09780000     26.14600000    -19.63700000     20.08000000
      3.39970000    457.72960000     -0.03430000     24.52500000    -18.41100000     19.42400000
      2.64950000     65.68880000      0.02950000     24.26800000    -17.50900000     18.86900000
      2.64950000     65.68880000      0.02950000     23.97400000    -19.25800000     19.01500000
      3.39970000    359.82400000      0.01180000     24.03000000    -18.21200000     20.81300000
      3.39970000    359.82400000     -0.12560000     23.43100000    -19.28400000     21.49300000
      2.59960000     62.76000000      0.13300000     23.28600000    -20.22900000     20.97000000
      3.39970000    359.82400000     -0.17040000     23.02600000    -19.15200000     22.81200000
      2.59960000     62.76000000      0.14300000     22.54100000    -19.98600000     23.31900000
      3.39970000    359.82400000     -0.10720000     23.23800000    -17.95900000     23.48600000
      2.59960000     62.76000000      0.12970000     22.92800000    -17.85100000     24.52500000
      3.39970000    359.82400000     -0.17040000     23.86100000    -16.87800000     22.81700000
      2.59960000     62.76000000      0.14300000     24.02900000    -15.93400000     23.33500000
      3.39970000    359.82400000     -0.12560000     24.25700000    -17.02400000     21.50200000
      2.59960000     62.76000000      0.13300000     24.75500000    -16.20200000     20.98800000
      3.39970000    359.82400000      0.59730000     26.36000000    -19.51700000     18.09200000
      2.95990000    878.64000000     -0.56790000     25.53400000    -20.24900000     17.53400000
      3.25000000    711.28000000     -0.41570000     27.60700000    -19.33100000     17.63200000
      1.06910000     65.68880000      0.27190000     28.21000000    -18.64600000     18.06400000
      3.39970000    457.72960000     -0.02520000     28.12800000    -20.10000000     16.50900000
      2.47140000     65.68880000      0.06980000     29.15200000    -20.36800000     16.77000000
      2.47140000     65.68880000      0.06980000     27.52100000    -21.00300000     16.44900000
      3.39970000    359.82400000      0.59730000     28.12700000    -19.42300000     15.17600000
      2.95990000    878.64000000     -0.56790000     28.52500000    -20.00900000     14.16700000
      3.25000000    711.28000000     -0.41570000     27.65700000    -18.17400000     15.13900000
      1.06910000     65.68880000      0.27190000     27.30400000    -17.72200000     15.97000000
      3.39970000    457.72960000     -0.02520000     27.64300000    -17.43700000     13.90200000
      2.47140000     65.68880000      0.06980000     27.29400000    -18.09100000     13.10300000
      2.47140000     65.68880000      0.06980000     26.96300000    -16.59100000     14.00100000
      3.39970000    359.82400000      0.59730000     29.01800000    -16.92400000     13.55200000
      2.95990000    878.64000000     -0.56790000     29.79100000    -16.51600000     14.43600000
      3.25000000    711.28000000     -0.41570000     29.33200000    -16.95300000     12.26800000
      1.06910000     65.68880000      0.27190000     28.73600000    -17.40800000     11.59100000
      3.39970000    457.72960000     -0.08750000     30.59300000    -16.39500000     11.81000000
      2.47140000     65.68880000      0.09690000     31.12500000    -15.88500000     12.61300000
      3.39970000    457.72960000      0.29850000     31.50900000    -17.48200000     11.22700000
      2.64950000     65.68880000     -0.02970000     31.64700000    -18.25700000     11.98100000
      3.39970000    457.72960000     -0.31920000     30.91500000    -18.10000000      9.96600000
      2.64950000     65.68880000      0.07910000     30.77700000    -17.32600000      9.21100000
      2.64950000     65.68880000      0.07910000     31.59100000    -18.86400000      9.58200000
      2.64950000     65.68880000      0.07910000     29.95200000    -18.55200000     10.20200000
      3.39970000    457.72960000     -0.31920000     32.89100000    -16.90000000     10.93800000
      2.64950000     65.68880000      0.07910000     33.32700000    -16.52200000     11.86300000
      2.64950000     65.68880000      0.07910000     33.53400000    -17.67700000     10.52500000
      2.64950000     65.68880000      0.07910000     32.80000000    -16.08500000     10.22000000
      3.39970000    359.82400000      0.59730000     30.27900000    -15.30700000     10.80200000
      2.95990000    878.64000000     -0.56790000     29.23200000    -15.34900000     10.14800000
      3.25000000    711.28000000     -0.41570000     31.17000000    -14.32300000     10.72100000
      1.06910000     65.68880000      0.27190000     31.95800000    -14.33400000     11.35300000
      3.39970000    457.72960000     -0.02520000     31.06900000    -13.24900000      9.78300000
      2.47140000     65.68880000      0.06980000     31.99600000    -12.67600000      9.79000000
      2.47140000     65.68880000      0.06980000     30.90200000    -13.65600000      8.78600000
      3.39970000    359.82400000      0.59730000     29.90700000    -12.32100000     10.14300000
      2.95990000    878.64000000     -0.56790000     29.37600000    -12.31600000     11.27700000
      3.25000000    711.28000000     -0.41570000     29.57100000    -11.48800000      9.18100000
      1.06910000     65.68880000      0.27190000     30.05800000    -11.51500000      8.29700000
      3.39970000    457.72960000      0.01430000     28.54000000    -10.48500000      9.36800000
      2.47140000     65.68880000      0.10480000     28.61500000    -10.02800000     10.35500000
      3.39970000    457.72960000     -0.20410000     28.73800000     -9.38400000      8.29600000
      2.64950000     65.68880000      0.07970000     29.76200000     -9.01100000      8.31300000
      2.64950000     65.68880000      0.07970000     28.53600000     -9.84600000      7.32900000
      3.39970000    359.82400000      0.71300000     27.78400000     -8.20300000      8.48200000
      2.95990000    878.64000000     -0.59310000     26.65500000     -8.37500000      8.97400000
      3.25000000    711.28000000     -0.91910000     28.23100000     -7.00800000      8.14600000
      1.06910000     65.68880000      0.41960000     27.63400000     -6.20000000      8.25300000
      1.06910000     65.68880000      0.41960000     29.16800000     -6.90600000      7.78400000
      3.39970000    359.82400000      0.59730000     27.22500000    -11.17100000      9.25900000
      2.95990000    878.64000000     -0.56790000     26.92400000    -11.82400000      8.25600000
      3.25000000    711.28000000     -0.25480000     26.34000000    -11.02700000     10.26800000
      3.39970000    457.72960000      0.01920000     26.53800000    -10.43400000     11.61200000
      2.47140000     65.68880000      0.03910000     26.53700000     -9.34800000     11.52000000
      2.47140000     65.68880000      0.03910000     27.50000000    -10.76400000     12.00300000
      3.39970000    457.72960000      0.01890000     25.39700000    -10.93900000     12.41600000
      2.64950000     65.68880000      0.02130000     25.08300000    -10.16000000     13.11000000
      2.64950000     65.68880000      0.02130000     25.72200000    -11.81500000     12.97700000
      3.39970000    457.72960000     -0.00700000     24.31800000    -11.28700000     11.47500000
      2.64950000     65.68880000      0.02530000     23.59200000    -10.49300000     11.30000000
      2.64950000     65.68880000      0.02530000     23.80500000    -12.16900000     11.85900000
      3.39970000    457.72960000     -0.02660000     25.06500000    -11.64200000     10.12200000
      2.47140000     65.68880000      0.06410000     25.25100000    -12.71600000     10.11700000
      3.39970000    359.82400000      0.58960000     24.25100000    -11.25600000      8.86800000
      2.95990000    878.64000000     -0.57480000     23.38100000    -12.04100000      8.39300000
      3.25000000    711.28000000     -0.41570000     24.43200000    -10.03100000      8.40400000
      1.06910000     65.68880000      0.27190000     25.08000000     -9.41400000      8.87200000
      3.39970000    457.72960000      0.03370000     23.67800000     -9.51000000      7.26700000
      2.47140000     65.68880000      0.08230000     22.61800000     -9.71400000      7.41700000
      3.39970000    457.72960000     -0.18250000     23.87400000     -8.02100000      7.18000000
      2.64950000     65.68880000      0.06030000     24.93000000     -7.80200000      7.02000000
      2.64950000     65.68880000      0.06030000     23.29100000     -7.62500000      6.34800000
      2.64950000     65.68880000      0.06030000     23.54300000     -7.55600000      8.10800000
      3.39970000    359.82400000      0.59730000     24.08700000    -10.18500000      5.96500000
      2.95990000    878.64000000     -0.56790000     23.42300000    -10.02400000      4.97900000
      3.25000000    711.28000000     -0.41570000     25.23000000    -10.85700000      5.96500000
      1.06910000     65.68880000      0.27190000     25.80900000    -10.78200000      6.78900000
      3.39970000    457.72960000      0.03370000     25.76300000    -11.60200000      4.79700000
      2.47140000     65.68880000      0.08230000     25.26900000    -11.18200000      3.92100000
      3.39970000    457.72960000     -0.18250000     27.26400000    -11.40400000      4.65100000
      2.64950000     65.68880000      0.06030000     27.77300000    -11.82800000      5.51700000
      2.64950000     65.68880000      0.06030000     27.61100000    -11.90300000      3.74600000
      2.64950000     65.68880000      0.06030000     27.48600000    -10.33900000      4.58500000
      3.39970000    359.82400000      0.59730000     25.39100000    -13.08000000      4.84600000
      2.95990000    878.64000000     -0.56790000     25.59500000    -13.86100000      3.89100000
      3.25000000    711.28000000     -0.41570000     24.83600000    -13.50700000      5.97900000
      1.06910000     65.68880000      0.27190000     24.77700000    -12.86400000      6.75600000
      3.39970000    457.72960000      0.03370000     24.39300000    -14.84000000      6.17400000
      2.47140000     65.68880000      0.08230000     25.07100000    -15.51700000      5.65400000
      3.39970000    457.72960000     -0.18250000     24.36700000    -15.21900000      7.66100000
      2.64950000     65.68880000      0.06030000     23.68500000    -14.55600000      8.19400000
      2.64950000     65.68880000      0.06030000     24.02800000    -16.24900000      7.76800000
      2.64950000     65.68880000      0.06030000     25.36900000    -15.12100000      8.07900000
      3.39970000    359.82400000      0.59730000     23.04400000    -15.00400000      5.54300000
      2.95990000    878.64000000     -0.56790000     22.31400000    -14.00800000      5.45900000
      3.25000000    711.28000000     -0.41570000     22.75600000    -16.19000000      5.00500000
      1.06910000     65.68880000      0.27190000     23.48100000    -16.87900000      4.86500000
      3.39970000    457.72960000     -0.02490000     21.41300000    -16.48500000      4.50300000
      2.47140000     65.68880000      0.08430000     21.15200000    -15.74900000      3.74300000
      3.39970000    457.72960000      0.21170000     21.31500000    -17.85100000      3.89900000
      2.47140000     65.68880000      0.03520000     20.35800000    -17.90900000      3.38100000
      2.47140000     65.68880000      0.03520000     22.12500000    -17.94500000      3.17600000
      3.06650000    880.31360000     -0.65460000     21.40500000    -18.91200000      4.85700000
      1.24730000     41.84000000      0.42750000     21.33500000    -19.75700000      4.40600000
      3.39970000    359.82400000      0.59730000     20.37400000    -16.29100000      5.61200000
      2.95990000    878.64000000     -0.56790000     20.65800000    -16.40500000      6.81100000
      3.25000000    711.28000000     -0.34790000     19.13100000    -16.03600000      5.22600000
      1.06910000     65.68880000      0.27470000     18.94200000    -15.76500000      4.27100000
      3.39970000    457.72960000     -0.26370000     17.99500000    -16.10500000      6.17400000
      2.47140000     65.68880000      0.15600000     18.04100000    -15.27100000      6.87400000
      3.39970000    457.72960000     -0.00070000     16.67100000    -16.03000000      5.40900000
      2.64950000     65.68880000      0.03270000     16.56200000    -14.99400000      5.08700000
      2.64950000     65.68880000      0.03270000     16.78700000    -16.67100000      4.53500000
      3.39970000    457.72960000      0.03900000     15.42600000    -16.45400000      6.19100000
      2.64950000     65.68880000      0.02850000     15.56400000    -17.49000000      6.49900000
      2.64950000     65.68880000      0.02850000     15.35600000    -15.81900000      7.07400000
      3.39970000    457.72960000      0.04860000     14.14400000    -16.33300000      5.37500000
      2.47140000     65.68880000      0.06870000     13.95800000    -15.28000000      5.16300000
      2.47140000     65.68880000      0.06870000     14.27000000    -16.87500000      4.43800000
      3.25000000    711.28000000     -0.52950000     12.99800000    -16.87500000      6.07400000
      1.06910000     65.68880000      0.34560000     12.33600000    -16.21200000      6.45100000
      3.39970000    359.82400000      0.80760000     12.74300000    -18.18100000      6.21200000
      3.25000000    711.28000000     -0.86270000     13.47700000    -19.15500000      5.69000000
      1.06910000     65.68880000      0.44780000     14.29500000    -18.92900000      5.14300000
      1.06910000     65.68880000      0.44780000     13.21400000    -20.11800000      5.84200000
      3.25000000    711.28000000     -0.86270000     11.73400000    -18.57800000      6.93800000
      1.06910000     65.68880000      0.44780000     11.14600000    -17.89600000      7.39600000
      1.06910000     65.68880000      0.44780000     11.54600000    -19.56500000      7.03900000
      3.39970000    359.82400000      0.73410000     18.07800000    -17.39300000      6.96400000
      2.95990000    878.64000000     -0.58940000     17.86300000    -17.41400000      8.17600000
      3.25000000    711.28000000     -0.51630000     18.29200000    -18.51700000      6.26900000
      1.06910000     65.68880000      0.29360000     18.30300000    -18.48600000      5.26000000
      3.39970000    457.72960000      0.03970000     18.30800000    -19.84300000      6.93100000
      2.47140000     65.68880000      0.11050000     17.42400000    -19.93500000      7.56200000
      3.39970000    457.72960000      0.05600000     18.30900000    -20.98400000      5.92800000
      2.64950000     65.68880000     -0.01730000     19.18200000    -20.84400000      5.29000000
      2.64950000     65.68880000     -0.01730000     18.42000000    -21.90600000      6.49800000
      3.39970000    457.72960000      0.01360000     17.04600000    -21.07000000      5.05600000
      2.64950000     65.68880000     -0.04250000     17.13100000    -21.98200000      4.46500000
      2.64950000     65.68880000     -0.04250000     16.18800000    -21.14900000      5.72400000
      3.39970000    359.82400000      0.80540000     16.85100000    -19.83900000      4.09500000
      2.95990000    878.64000000     -0.81880000     17.85500000    -19.17600000      3.56100000
      2.95990000    878.64000000     -0.81880000     15.65800000    -19.47400000      3.83900000
      3.39970000    359.82400000      0.53660000     19.42000000    -19.98600000      8.00800000
      2.95990000    878.64000000     -0.58190000     19.13200000    -20.49600000      9.07900000
      3.25000000    711.28000000     -0.41570000     20.60400000    -19.43900000      7.75900000
      1.06910000     65.68880000      0.27190000     20.76300000    -19.05100000      6.84000000
      3.39970000    457.72960000     -0.00310000     21.68700000    -19.41000000      8.70900000
      2.47140000     65.68880000      0.08500000     21.82800000    -20.40400000      9.13300000
      3.39970000    457.72960000     -0.00360000     22.99900000    -18.97300000      8.03500000
      2.64950000     65.68880000      0.01710000     22.83400000    -18.03000000      7.51300000
      2.64950000     65.68880000      0.01710000     23.76300000    -18.83500000      8.80000000
      3.39970000    457.72960000     -0.06450000     23.45600000    -20.01400000      7.05400000
      2.64950000     65.68880000      0.03520000     23.85500000    -20.86500000      7.60600000
      2.64950000     65.68880000      0.03520000     22.58900000    -20.33200000      6.47500000
      3.39970000    359.82400000      0.69510000     24.51100000    -19.51900000      6.10600000
      2.95990000    878.64000000     -0.60860000     24.54800000    -18.37100000      5.72700000
      3.25000000    711.28000000     -0.94070000     25.39000000    -20.40900000      5.72900000
      1.06910000     65.68880000      0.42510000     26.12900000    -20.14700000      5.09200000
      1.06910000     65.68880000      0.42510000     25.32700000    -21.35500000      6.07600000
      3.39970000    359.82400000      0.59730000     21.37400000    -18.45900000      9.89900000
      2.95990000    878.64000000     -0.56790000     21.68800000    -18.81100000     11.06400000
      3.25000000    711.28000000     -0.41570000     20.75700000    -17.31200000      9.61000000
      1.06910000     65.68880000      0.27190000     20.60800000    -17.04100000      8.64800000
      3.39970000    457.72960000     -0.00310000     20.35600000    -16.37400000     10.66800000
      2.47140000     65.68880000      0.08500000     21.21800000    -16.14000000     11.29300000
      3.39970000    457.72960000     -0.00360000     19.81600000    -15.07400000     10.07500000
      2.64950000     65.68880000      0.01710000     19.03600000    -15.33500000      9.35900000
      2.64950000     65.68880000      0.01710000     19.38100000    -14.49400000     10.88900000
      3.39970000    457.72960000     -0.06450000     20.87100000    -14.25900000      9.38900000
      2.64950000     65.68880000      0.03520000     21.54300000    -14.02300000     10.21400000
      2.64950000     65.68880000      0.03520000     21.41900000    -14.80100000      8.61800000
      3.39970000    359.82400000      0.69510000     20.36300000    -12.97700000      8.80400000
      2.95990000    878.64000000     -0.60860000     19.66400000    -12.21100000      9.47200000
      3.25000000    711.28000000     -0.94070000     20.57700000    -12.81700000      7.51400000
      1.06910000     65.68880000      0.42510000     20.26100000    -11.97600000      7.05300000
      1.06910000     65.68880000      0.42510000     21.05600000    -13.53700000      6.99200000
      3.39970000    359.82400000      0.59730000     19.33900000    -17.06400000     11.56800000
      2.95990000    878.64000000     -0.56790000     19.37600000    -16.89200000     12.81500000
      3.25000000    711.28000000     -0.41570000     18.38300000    -17.76700000     10.99400000
      1.06910000     65.68880000      0.27190000     18.23900000    -17.66300000     10.00000000
      3.39970000    457.72960000     -0.05970000     17.41200000    -18.49700000     11.74700000
      2.47140000     65.68880000      0.08690000     17.01500000    -17.91100000     12.57600000
      3.39970000    457.72960000      0.13030000     16.25400000    -18.97000000     10.85300000
      2.64950000     65.68880000      0.01870000     16.68600000    -19.34300000      9.92500000
      3.39970000    457.72960000     -0.32040000     15.40000000    -20.07000000     11.49800000
      2.64950000     65.68880000      0.08820000     14.96700000    -19.69700000     12.42600000
      2.64950000     65.68880000      0.08820000     14.60100000    -20.35800000     10.81500000
      2.64950000     65.68880000      0.08820000     16.02500000    -20.93700000     11.71200000
      3.39970000    457.72960000     -0.04300000     15.40900000    -17.76400000     10.47700000
      2.64950000     65.68880000      0.02360000     14.88800000    -17.41000000     11.36700000
      2.64950000     65.68880000      0.02360000     16.06600000    -16.97800000     10.10500000
      3.39970000    457.72960000     -0.06600000     14.39200000    -18.12500000      9.40300000
      2.64950000     65.68880000      0.01860000     13.73400000    -18.91100000      9.77400000
      2.64950000     65.68880000      0.01860000     13.80000000    -17.24500000      9.15200000
      2.64950000     65.68880000      0.01860000     14.91300000    -18.47800000      8.51300000
      3.39970000    359.82400000      0.59730000     18.05200000    -19.61000000     12.62700000
      2.95990000    878.64000000     -0.56790000     17.57400000    -19.84000000     13.75400000
      3.25000000    711.28000000     -0.41570000     19.04500000    -20.32000000     12.10500000
      1.06910000     65.68880000      0.27190000     19.35200000    -20.10200000     11.16800000
      3.39970000    457.72960000      0.03370000     19.69000000    -21.43300000     12.80700000
      2.47140000     65.68880000      0.08230000     18.95900000    -22.18000000     13.11700000
      3.39970000    457.72960000     -0.18250000     20.71600000    -22.09900000     11.92800000
      2.64950000     65.68880000      0.06030000     21.46000000    -21.36500000     11.61700000
      2.64950000     65.68880000      0.06030000     21.20600000    -22.89900000     12.48300000
      2.64950000     65.68880000      0.06030000     20.22600000    -22.51500000     11.04800000
      3.39970000    359.82400000      0.59730000     20.32000000    -20.88400000     14.06200000
      2.95990000    878.64000000     -0.56790000     20.14400000    -21.47100000     15.08200000
      3.25000000    711.28000000     -0.41570000     20.97200000    -19.72300000     13.95200000
      1.06910000     65.68880000      0.27190000     21.14900000    -19.33400000     13.03700000
      3.39970000    457.72960000     -0.08750000     21.55700000    -19.07300000     15.09400000
      2.47140000     65.68880000      0.09690000     22.08100000    -19.82700000     15.68100000
      3.39970000    457.72960000      0.29850000     22.54900000    -17.95600000     14.73100000
      2.64950000     65.68880000     -0.02970000     22.02400000    -17.18700000     14.16400000
      3.39970000    457.72960000     -0.31920000     23.15500000    -17.33100000     16.00600000
      2.64950000     65.68880000      0.07910000     23.68100000    -18.09900000     16.57300000
      2.64950000     65.68880000      0.07910000     23.85400000    -16.54300000     15.72800000
      2.64950000     65.68880000      0.07910000     22.35800000    -16.90900000     16.61900000
      3.39970000    457.72960000     -0.31920000     23.67000000    -18.51600000     13.89000000
      2.64950000     65.68880000      0.07910000     23.26000000    -18.94300000     12.97500000
      2.64950000     65.68880000      0.07910000     24.36900000    -17.71800000     13.63700000
      2.64950000     65.68880000      0.07910000     24.19200000    -19.29200000     14.45000000
      3.39970000    359.82400000      0.59730000     20.45700000    -18.56900000     16.05200000
      2.95990000    878.64000000     -0.56790000     20.56400000    -18.82000000     17.25700000
      3.25000000    711.28000000     -0.41570000     19.36700000    -17.99600000     15.53100000
      1.06910000     65.68880000      0.27190000     19.31000000    -17.76500000     14.54900000
      3.39970000    457.72960000      0.03370000     18.24000000    -17.58900000     16.42000000
      2.47140000     65.68880000      0.08230000     18.68300000    -16.88600000     17.12600000
      3.39970000    457.72960000     -0.18250000     17.16600000    -16.88100000     15.64800000
      2.64950000     65.68880000      0.06030000     16.70700000    -17.57400000     14.94300000
      2.64950000     65.68880000      0.06030000     16.40800000    -16.50900000     16.33700000
      2.64950000     65.68880000      0.06030000     17.60200000    -16.04400000     15.10200000
      3.39970000    359.82400000      0.59730000     17.61400000    -18.72600000     17.21700000
      2.95990000    878.64000000     -0.56790000     17.36700000    -18.57200000     18.40800000
      3.25000000    711.28000000     -0.41570000     17.44100000    -19.89400000     16.60700000
      1.06910000     65.68880000      0.27190000     17.58100000    -19.94200000     15.60800000
      3.39970000    457.72960000      0.01430000     16.93300000    -21.04700000     17.27500000
      2.47140000     65.68880000      0.10480000     15.99600000    -20.79900000     17.77300000
      3.39970000    457.72960000     -0.20410000     16.67200000    -22.18600000     16.27400000
      2.64950000     65.68880000      0.07970000     17.50900000    -22.12600000     15.57900000
      2.64950000     65.68880000      0.07970000     16.64700000    -23.17700000     16.72700000
      3.39970000    359.82400000      0.71300000     15.40600000    -21.97800000     15.51400000
      2.95990000    878.64000000     -0.59310000     14.39400000    -21.53600000     16.06300000
      3.25000000    711.28000000     -0.91910000     15.40700000    -22.41100000     14.27100000
      1.06910000     65.68880000      0.41960000     14.58100000    -22.30100000     13.70100000
      1.06910000     65.68880000      0.41960000     16.23400000    -22.85100000     13.89300000
      3.39970000    359.82400000      0.59730000     17.81000000    -21.51200000     18.45400000
      2.95990000    878.64000000     -0.56790000     17.30900000    -21.81200000     19.52500000
      3.25000000    711.28000000     -0.34790000     19.12500000    -21.43400000     18.30100000
      1.06910000     65.68880000      0.27470000     19.51100000    -21.24400000     17.38700000
      3.39970000    457.72960000     -0.26370000     20.05300000    -21.66400000     19.41300000
      2.47140000     65.68880000      0.15600000     19.85100000    -22.63500000     19.86600000
      3.39970000    457.72960000     -0.00070000     21.49200000    -21.64600000     18.92300000
      2.64950000     65.68880000      0.03270000     21.67700000    -20.68000000     18.45200000
      2.64950000     65.68880000      0.03270000     22.14600000    -21.76000000     19.78800000
      3.39970000    457.72960000      0.03900000     21.77000000    -22.74300000     17.93900000
      2.64950000     65.68880000      0.02850000     21.80500000    -23.70700000     18.44600000
      2.64950000     65.68880000      0.02850000     20.99900000    -22.76600000     17.16900000
      3.39970000    457.72960000      0.04860000     23.09900000    -22.46300000     17.30700000
      2.47140000     65.68880000      0.06870000     23.09700000    -21.45800000     16.88600000
      2.47140000     65.68880000      0.06870000     23.88400000    -22.54000000     18.06000000
      3.25000000    711.28000000     -0.52950000     23.37600000    -23.40100000     16.25700000
      1.06910000     65.68880000      0.34560000     22.62000000    -23.99500000     15.94600000
      3.39970000    359.82400000      0.80760000     24.52300000    -23.45600000     15.61500000
      3.25000000    711.28000000     -0.86270000     25.54000000    -22.69400000     15.99900000
      1.06910000     65.68880000      0.44780000     25.43100000    -22.07100000     16.78600000
      1.06910000     65.68880000      0.44780000     26.41800000    -22.74100000     15.50200000
      3.25000000    711.28000000     -0.86270000     24.67800000    -24.35100000     14.66200000
      1.06910000     65.68880000      0.44780000     23.92100000    -24.98000000     14.43600000
      1.06910000     65.68880000      0.44780000     25.55300000    -24.40400000     14.16100000
      3.39970000    359.82400000      0.73410000     19.92000000    -20.64200000     20.56100000
      2.95990000    878.64000000     -0.58940000     19.90700000    -21.02000000     21.75400000
      3.25000000    711.28000000     -0.41570000     19.81000000    -19.37200000     20.20800000
      1.06910000     65.68880000      0.27190000     19.89900000    -19.13300000     19.23100000
      3.39970000    457.72960000     -0.08750000     19.61000000    -18.28000000     21.18000000
      2.47140000     65.68880000      0.09690000     20.42300000    -18.29200000     21.90600000
      3.39970000    457.72960000      0.29850000     19.57600000    -16.86500000     20.48500000
      2.64950000     65.68880000     -0.02970000     18.85200000    -16.90100000     19.67100000
      3.39970000    457.72960000     -0.31920000     19.18400000    -15.75500000     21.46900000
      2.64950000     65.68880000      0.07910000     19.90800000    -15.71800000     22.28300000
      2.64950000     65.68880000      0.07910000     19.17200000    -14.79600000     20.95000000
      2.64950000     65.68880000      0.07910000     18.19300000    -15.96100000     21.87400000
      3.39970000    457.72960000     -0.31920000     20.94100000    -16.52000000     19.90900000
      2.64950000     65.68880000      0.07910000     21.22400000    -17.27000000     19.17000000
      2.64950000     65.68880000      0.07910000     20.89800000    -15.54000000     19.43300000
      2.64950000     65.68880000      0.07910000     21.68000000    -16.50300000     20.71000000
      3.39970000    359.82400000      0.59730000     18.33200000    -18.50600000     21.93600000
      2.95990000    878.64000000     -0.56790000     18.28600000    -18.30100000     23.17300000
      3.25000000    711.28000000     -0.41570000     17.29300000    -18.90400000     21.23500000
      1.06910000     65.68880000      0.27190000     17.37600000    -19.00700000     20.23400000
      3.39970000    457.72960000     -0.05180000     15.98500000    -19.15100000     21.85400000
      2.47140000     65.68880000      0.09220000     15.65000000    -18.24800000     22.36400000
      3.39970000    457.72960000     -0.11020000     14.95300000    -19.53300000     20.82100000
      2.64950000     65.68880000      0.04570000     14.87300000    -18.63800000     20.20400000
      2.64950000     65.68880000      0.04570000     15.36400000    -20.34800000     20.22500000
      3.39970000    457.72960000      0.35310000     13.57200000    -19.92300000     21.33100000
      2.64950000     65.68880000     -0.03610000     13.67200000    -20.74500000     22.04000000
      3.39970000    457.72960000     -0.41210000     12.91800000    -18.74900000     22.01300000
      2.64950000     65.68880000      0.10000000     12.81700000    -17.92700000     21.30500000
      2.64950000     65.68880000      0.10000000     11.93100000    -19.04100000     22.37300000
      2.64950000     65.68880000      0.10000000     13.53200000    -18.42900000     22.85500000
      3.39970000    457.72960000     -0.41210000     12.73100000    -20.43200000     20.18700000
      2.64950000     65.68880000      0.10000000     13.21100000    -21.30400000     19.74300000
      2.64950000     65.68880000      0.10000000     11.74400000    -20.71000000     20.55700000
      2.64950000     65.68880000      0.10000000     12.63000000    -19.65000000     19.43400000
      3.39970000    359.82400000      0.59730000     16.07100000    -20.22400000     22.90500000
      2.95990000    878.64000000     -0.56790000     15.55900000    -20.08000000     24.02300000
      3.25000000    711.28000000     -0.41570000     16.71400000    -21.34600000     22.54100000
      1.06910000     65.68880000      0.27190000     17.01200000    -21.46600000     21.58300000
      3.39970000    457.72960000      0.03370000     16.90600000    -22.45500000     23.46900000
      2.47140000     65.68880000      0.08230000     15.91900000    -22.79700000     23.77900000
      3.39970000    457.72960000     -0.18250000     17.62000000    -23.60700000     22.74500000
      2.64950000     65.68880000      0.06030000     18.61400000    -23.28200000     22.43600000
      2.64950000     65.68880000      0.06030000     17.71000000    -24.46000000     23.41800000
      2.64950000     65.68880000      0.06030000     17.04400000    -23.89700000     21.86600000
      3.39970000    359.82400000      0.59730000     17.65300000    -22.03600000     24.74700000
      2.95990000    878.64000000     -0.56790000     17.28200000    -22.41500000     25.82100000
      3.25000000    711.28000000     -0.51630000     18.71900000    -21.25700000     24.63000000
      1.06910000     65.68880000      0.29360000     18.98900000    -20.91100000     23.72000000
      3.39970000    457.72960000      0.03970000     19.54300000    -20.88400000     25.79100000
      2.47140000     65.68880000      0.11050000     19.63900000    -21.72300000     26.48000000
      3.39970000    457.72960000      0.05600000     20.94500000    -20.49200000     25.29600000
      2.64950000     65.68880000     -0.01730000     21.34300000    -21.36300000     24.77600000
      2.64950000     65.68880000     -0.01730000     20.80400000    -19.67800000     24.58500000
      3.39970000    457.72960000      0.01360000     21.92200000    -20.05700000     26.37600000
      2.64950000     65.68880000     -0.04250000     22.78300000    -19.61000000     25.87900000
      2.64950000     65.68880000     -0.04250000     21.44200000    -19.31200000     27.01000000
      3.39970000    359.82400000      0.80540000     22.38200000    -21.22800000     27.23000000
      2.95990000    878.64000000     -0.81880000     22.26300000    -22.38900000     26.76200000
      2.95990000    878.64000000     -0.81880000     22.84400000    -20.98700000     28.37200000
      3.39970000    359.82400000      0.53660000     18.98500000    -19.69600000     26.62500000
      2.95990000    878.64000000     -0.58190000     19.13700000    -19.68500000     27.83900000
      3.25000000    711.28000000     -0.41570000     18.41000000    -18.68800000     25.96200000
      1.06910000     65.68880000      0.27190000     18.22500000    -18.84100000     24.98100000
      3.39970000    457.72960000     -0.00310000     18.02300000    -17.38800000     26.55500000
      2.47140000     65.68880000      0.08500000     18.35200000    -17.33000000     27.59300000
      3.39970000    457.72960000     -0.00360000     18.69800000    -16.24200000     25.75600000
      2.64950000     65.68880000      0.01710000     18.38800000    -16.35400000     24.71700000
      2.64950000     65.68880000      0.01710000     18.30600000    -15.30500000     26.15200000
      3.39970000    457.72960000     -0.06450000     20.20900000    -16.22800000     25.83200000
      2.64950000     65.68880000      0.03520000     20.49900000    -16.30000000     26.88000000
      2.64950000     65.68880000      0.03520000     20.58600000    -17.09600000     25.29100000
      3.39970000    359.82400000      0.69510000     20.84000000    -14.96800000     25.23500000
      2.95990000    878.64000000     -0.60860000     20.16100000    -14.12000000     24.65400000
      3.25000000    711.28000000     -0.94070000     22.16900000    -14.84800000     25.38500000
      1.06910000     65.68880000      0.42510000     22.64500000    -14.03900000     25.01300000
      1.06910000     65.68880000      0.42510000     22.68700000    -15.56800000     25.86900000
      3.39970000    359.82400000      0.59730000     16.49700000    -17.09700000     26.54600000
      2.95990000    878.64000000     -0.56790000     16.03500000    -16.16300000     27.22000000
      3.25000000    711.28000000     -0.41570000     15.73200000    -17.84300000     25.74700000
      1.06910000     65.68880000      0.27190000     16.13500000    -18.61100000     25.22900000
      3.39970000    457.72960000     -0.02520000     14.30700000    -17.58000000     25.59500000
      2.47140000     65.68880000      0.06980000     13.83800000    -18.44100000     25.11900000
      2.47140000     65.68880000      0.06980000     13.86900000    -17.42700000     26.58100000
      3.39970000    359.82400000      0.59730000     14.05300000    -16.34400000     24.74300000
      2.95990000    878.64000000     -0.56790000     14.96400000    -15.75800000     24.13400000
      3.25000000    711.28000000     -0.41570000     12.77500000    -15.98800000     24.63200000
      1.06910000     65.68880000      0.27190000     12.04700000    -16.50000000     25.11000000
      3.39970000    457.72960000     -0.05180000     12.38900000    -14.85900000     23.79300000
      2.47140000     65.68880000      0.09220000     12.87000000    -14.93200000     22.81800000
      3.39970000    457.72960000     -0.11020000     10.87700000    -14.86400000     23.59200000
      2.64950000     65.68880000      0.04570000     10.47100000    -14.96600000     24.59800000
      2.64950000     65.68880000      0.04570000     10.60600000    -13.88800000     23.18900000
      3.39970000    457.72960000      0.35310000     10.30900000    -15.95100000     22.70600000
      2.64950000     65.68880000     -0.03610000     10.63200000    -16.93000000     23.06100000
      3.39970000    457.72960000     -0.41210000      8.78400000    -15.86800000     22.76100000
      2.64950000     65.68880000      0.10000000      8.46000000    -14.89000000     22.40600000
      2.64950000     65.68880000      0.10000000      8.35400000    -16.64400000     22.12800000
      2.64950000     65.68880000      0.10000000      8.44900000    -16.01100000     23.78800000
      3.39970000    457.72960000     -0.41210000     10.78600000    -15.82200000     21.29000000
      2.64950000     65.68880000      0.10000000     11.87300000    -15.89400000     21.26400000
      2.64950000     65.68880000      0.10000000     10.35500000    -16.62100000     20.68700000
      2.64950000     65.68880000      0.10000000     10.47600000    -14.85700000     20.88800000
      3.39970000    359.82400000      0.59730000     12.82400000    -13.53100000     24.44100000
      2.95990000    878.64000000     -0.56790000     12.69800000    -12.50400000     23.79800000
      3.25000000    711.28000000     -0.51630000     13.34000000    -13.57400000     25.67100000
      1.06910000     65.68880000      0.29360000     13.28700000    -14.43800000     26.19100000
      3.39970000    457.72960000      0.03810000     13.93500000    -12.39000000     26.33500000
      2.47140000     65.68880000      0.08800000     13.17300000    -11.61600000     26.42700000
      3.39970000    457.72960000     -0.03030000     14.47100000    -12.71800000     27.73200000
      2.64950000     65.68880000     -0.01220000     14.83300000    -13.74500000     27.67900000
      2.64950000     65.68880000     -0.01220000     15.30200000    -12.05200000     27.96600000
      3.39970000    359.82400000      0.79940000     13.41300000    -12.60900000     28.81900000
      2.95990000    878.64000000     -0.80140000     12.26000000    -12.19500000     28.51400000
      2.95990000    878.64000000     -0.80140000     13.75100000    -12.89800000     29.98500000
      3.39970000    359.82400000      0.53660000     15.06200000    -11.79300000     25.47700000
      2.95990000    878.64000000     -0.58190000     15.42800000    -10.62600000     25.62800000
      3.25000000    711.28000000     -0.41570000     15.59300000    -12.56100000     24.54400000
      1.06910000     65.68880000      0.27190000     15.41200000    -13.55200000     24.47700000
      3.39970000    457.72960000      0.03370000     16.58700000    -11.99100000     23.68000000
      2.47140000     65.68880000      0.08230000     17.28700000    -11.46400000     24.32900000
      3.39970000    457.72960000     -0.18250000     17.34200000    -13.11500000     22.95400000
      2.64950000     65.68880000      0.06030000     16.65700000    -13.64600000     22.29300000
      2.64950000     65.68880000      0.06030000     18.15400000    -12.68700000     22.36600000
      2.64950000     65.68880000      0.06030000     17.75100000    -13.81000000     23.68700000
      3.39970000    359.82400000      0.59730000     16.00800000    -10.92200000     22.70700000
      2.95990000    878.64000000     -0.56790000     16.78700000    -10.19500000     22.09500000
      3.25000000    711.28000000     -0.41570000     14.67800000    -10.93200000     22.48300000
      1.06910000     65.68880000      0.27190000     14.13800000    -11.62500000     22.98100000
      3.39970000    457.72960000     -0.02750000     13.97500000    -10.02000000     21.58700000
      2.47140000     65.68880000      0.11230000     14.65800000     -9.24100000     21.24800000
      3.39970000    457.72960000     -0.00500000     13.43700000    -10.76500000     20.36400000
      2.64950000     65.68880000      0.03390000     12.93600000    -11.65700000     20.74100000
      2.64950000     65.68880000      0.03390000     12.73700000    -10.18000000     19.76800000
      3.39970000    359.82400000     -0.14150000     14.50500000    -11.23700000     19.42900000
      3.39970000    359.82400000     -0.16380000     15.02200000    -10.54000000     18.37100000
      2.51060000     62.76000000      0.20620000     14.61900000     -9.54000000     18.20700000
      3.25000000    711.28000000     -0.34180000     15.95700000    -11.27000000     17.73300000
      1.06910000     65.68880000      0.34120000     16.47000000    -10.99100000     16.90900000
      3.39970000    359.82400000      0.13800000     16.06000000    -12.47800000     18.35900000
      3.39970000    359.82400000     -0.26010000     16.87700000    -13.53800000     18.05200000
      2.59960000     62.76000000      0.15720000     17.54000000    -13.45300000     17.19100000
      3.39970000    359.82400000     -0.11340000     16.80500000    -14.62100000     18.84000000
      2.59960000     62.76000000      0.14170000     17.48800000    -15.45400000     18.67000000
      3.39970000    359.82400000     -0.19720000     15.87100000    -14.71000000     19.88000000
      2.59960000     62.76000000      0.14470000     15.80000000    -15.61000000     20.49100000
      3.39970000    359.82400000     -0.23870000     15.01800000    -13.66900000     20.16200000
      2.59960000     62.76000000      0.17000000     14.32600000    -13.76500000     20.99800000
      3.39970000    359.82400000      0.12430000     15.12400000    -12.51300000     19.39500000
      3.39970000    359.82400000      0.59730000     12.82900000     -9.44500000     22.41900000
      2.95990000    878.64000000     -0.56790000     11.69200000     -9.88800000     22.33400000
      3.25000000    711.28000000     -0.25480000     13.14500000     -8.48500000     23.29500000
      3.39970000    457.72960000      0.01920000     14.44100000     -7.81000000     23.47100000
      2.47140000     65.68880000      0.03910000     14.66600000     -7.22800000     22.57700000
      2.47140000     65.68880000      0.03910000     15.21800000     -8.56000000     23.62100000
      3.39970000    457.72960000      0.01890000     14.23500000     -6.94700000     24.68600000
      2.64950000     65.68880000      0.02130000     14.27900000     -5.90700000     24.36200000
      2.64950000     65.68880000      0.02130000     15.05500000     -7.14800000     25.37600000
      3.39970000    457.72960000     -0.00700000     12.92100000     -7.26600000     25.31400000
      2.64950000     65.68880000      0.02530000     12.32100000     -6.37800000     25.51200000
      2.64950000     65.68880000      0.02530000     13.12400000     -7.78300000     26.25200000
      3.39970000    457.72960000     -0.02660000     12.16900000     -8.20100000     24.35100000
      2.47140000     65.68880000      0.06410000     11.99700000     -9.14400000     24.86900000
      3.39970000    359.82400000      0.58960000     10.80900000     -7.61600000     23.87700000
      2.95990000    878.64000000     -0.57480000      9.79900000     -7.86400000     24.54300000
      3.25000000    711.28000000     -0.41570000     10.76300000     -6.92400000     22.74400000
      1.06910000     65.68880000      0.27190000     11.62400000     -6.68800000     22.27200000
      3.39970000    457.72960000     -0.03890000      9.48400000     -6.40900000     22.17900000
      2.47140000     65.68880000      0.10070000      8.71300000     -6.49900000     22.94400000
      3.39970000    457.72960000      0.36540000      9.61600000     -4.92500000     21.78500000
      2.47140000     65.68880000      0.00430000     10.36600000     -4.84100000     20.99900000
      3.39970000    457.72960000     -0.24380000      8.24500000     -4.34300000     21.26700000
      2.64950000     65.68880000      0.06420000      7.49400000     -4.42600000     22.05300000
      2.64950000     65.68880000      0.06420000      8.37300000     -3.29500000     20.99800000
      2.64950000     65.68880000      0.06420000      7.91800000     -4.90500000     20.39200000
      3.06650000    880.31360000     -0.67610000      9.99100000     -4.20900000     22.96000000
      1.24730000     41.84000000      0.41020000     10.08300000     -3.27700000     22.75100000
      3.39970000    359.82400000      0.59730000      8.97000000     -7.18900000     20.99100000
      2.95990000    878.64000000     -0.56790000      7.77600000     -7.55000000     20.92400000
      3.25000000    711.28000000     -0.41570000      9.91900000     -7.61100000     20.13700000
      1.06910000     65.68880000      0.27190000     10.87200000     -7.30900000     20.27900000
      3.39970000    457.72960000      0.02130000      9.61500000     -8.38200000     18.95700000
      2.47140000     65.68880000      0.11240000      8.65100000     -8.09100000     18.54000000
      3.39970000    457.72960000     -0.12310000     10.69300000     -8.11100000     17.92200000
      2.47140000     65.68880000      0.11120000     11.68900000     -8.27900000     18.33300000
      2.47140000     65.68880000      0.11120000     10.55700000     -8.73100000     17.03600000
      3.53240000   1181.56160000     -0.31190000     10.67100000     -6.33900000     17.32400000
      1.08900000     51.88160000      0.19330000     11.69000000     -6.46500000     16.47900000
      3.39970000    359.82400000      0.59730000      9.41500000     -9.90100000     19.14800000
      2.95990000    878.64000000     -0.56790000      8.79100000    -10.53900000     18.33400000
      3.25000000    711.28000000     -0.41570000      9.85200000    -10.43800000     20.26200000
      1.06910000     65.68880000      0.27190000     10.31600000     -9.86800000     20.95500000
      3.39970000    457.72960000     -0.02520000      9.68500000    -11.86300000     20.53700000
      2.47140000     65.68880000      0.06980000     10.32700000    -12.39300000     19.83300000
      2.47140000     65.68880000      0.06980000     10.04600000    -12.02800000     21.55200000
      3.39970000    359.82400000      0.59730000      8.28000000    -12.40200000     20.42200000
      2.95990000    878.64000000     -0.56790000      8.08900000    -13.46900000     19.85100000
      3.25000000    711.28000000     -0.41570000      7.30900000    -11.63700000     20.89500000
      1.06910000     65.68880000      0.27190000      7.53000000    -10.75000000     21.32500000
      3.39970000    457.72960000      0.03370000      5.87400000    -12.06700000     20.85000000
      2.47140000     65.68880000      0.08230000      5.76400000    -12.97800000     21.43900000
      3.39970000    457.72960000     -0.18250000      4.99700000    -10.97800000     21.46700000
      2.64950000     65.68880000      0.06030000      5.08900000    -10.06200000     20.88300000
      2.64950000     65.68880000      0.06030000      3.95700000    -11.30500000     21.46700000
      2.64950000     65.68880000      0.06030000      5.31800000    -10.78900000     22.49100000
      3.39970000    359.82400000      0.59730000      5.39100000    -12.36000000     19.43800000
      2.95990000    878.64000000     -0.56790000      4.47100000    -13.15000000     19.24100000
      3.25000000    711.28000000     -0.41570000      5.99900000    -11.70300000     18.43600000
      1.06910000     65.68880000      0.27190000      6.68500000    -10.98900000     18.63700000
      3.39970000    457.72960000      0.03370000      5.62400000    -11.92900000     17.04800000
      2.47140000     65.68880000      0.08230000      4.54300000    -11.80100000     16.99200000
      3.39970000    457.72960000     -0.18250000      6.27900000    -10.91900000     16.12800000
      2.64950000     65.68880000      0.06030000      7.36200000    -11.04100000     16.16600000
      2.64950000     65.68880000      0.06030000      5.93200000    -11.07800000     15.10700000
      2.64950000     65.68880000      0.06030000      6.01600000     -9.91100000     16.44800000
      3.39970000    359.82400000      0.59730000      5.94300000    -13.36400000     16.58500000
      2.95990000    878.64000000     -0.56790000      5.31300000    -13.85000000     15.64800000
      3.25000000    711.28000000     -0.41570000      6.82400000    -14.06300000     17.29800000
      1.06910000     65.68880000      0.27190000      7.31100000    -13.61600000     18.06100000
      3.39970000    457.72960000     -0.02490000      7.09900000    -15.45600000     17.03200000
      2.47140000     65.68880000      0.08430000      7.55600000    -15.57900000     16.05000000
      3.39970000    457.72960000      0.21170000      8.08300000    -15.97600000     18.10200000
      2.47140000     65.68880000      0.03520000      8.46700000    -16.94200000     17.77400000
      2.47140000     65.68880000      0.03520000      8.90700000    -15.26700000     18.18300000
      3.06650000    880.31360000     -0.65460000      7.46200000    -16.11900000     19.35700000
      1.24730000     41.84000000      0.42750000      8.10200000    -16.44300000     19.99500000
      3.39970000    359.82400000      0.59730000      5.86100000    -16.34500000     17.09000000
      2.95990000    878.64000000     -0.56790000      5.85100000    -17.46800000     16.55400000
      3.25000000    711.28000000     -0.41570000      4.83100000    -15.88600000     17.78000000
      1.06910000     65.68880000      0.27190000      4.84600000    -14.95600000     18.17400000
      3.39970000    457.72960000     -0.02520000      3.63800000    -16.71300000     17.99300000
      2.47140000     65.68880000      0.06980000      2.80100000    -16.04700000     18.20200000
      2.47140000     65.68880000      0.06980000      3.44300000    -17.26400000     17.07300000
      3.39970000    359.82400000      0.59730000      3.78200000    -17.69700000     19.13500000
      2.95990000    878.64000000     -0.56790000      2.84000000    -18.40900000     19.44700000
      3.25000000    711.28000000     -0.41570000      4.92500000    -17.72500000     19.81500000
      1.06910000     65.68880000      0.27190000      5.70600000    -17.16200000     19.50900000
      3.39970000    457.72960000     -0.05180000      5.08700000    -18.53600000     21.00000000
      2.47140000     65.68880000      0.09220000      4.50300000    -19.45100000     20.90600000
      3.39970000    457.72960000     -0.11020000      6.55400000    -18.91100000     21.18800000
      2.64950000     65.68880000      0.04570000      7.04500000    -17.94000000     21.26000000
      2.64950000     65.68880000      0.04570000      6.65500000    -19.44000000     22.13600000
      3.39970000    457.72960000      0.35310000      7.20400000    -19.72700000     20.08000000
      2.64950000     65.68880000     -0.03610000      7.11200000    -19.21000000     19.12500000
      3.39970000    457.72960000     -0.41210000      8.65900000    -19.89000000     20.42300000
      2.64950000     65.68880000      0.10000000      8.75200000    -20.40700000     21.37800000
      2.64950000     65.68880000      0.10000000      9.15300000    -20.47200000     19.64500000
      2.64950000     65.68880000      0.10000000      9.12800000    -18.90900000     20.49500000
      3.39970000    457.72960000     -0.41210000      6.55700000    -21.05000000     19.84600000
      2.64950000     65.68880000      0.10000000      5.51400000    -20.90100000     19.56700000
      2.64950000     65.68880000      0.10000000      7.07600000    -21.57200000     19.04200000
      2.64950000     65.68880000      0.10000000      6.60700000    -21.64600000     20.75700000
      3.39970000    359.82400000      0.59730000      4.62500000    -17.74700000     22.21300000
      2.95990000    878.64000000     -0.56790000      4.99900000    -16.59300000     22.35600000
      3.25000000    711.28000000     -0.25480000      3.85100000    -18.36400000     23.11000000
      3.39970000    457.72960000      0.01920000      3.24400000    -19.71100000     23.08900000
      2.47140000     65.68880000      0.03910000      3.97400000    -20.43900000     22.73500000
      2.47140000     65.68880000      0.03910000      2.37800000    -19.71500000     22.42700000
      3.39970000    457.72960000      0.01890000      2.86700000    -19.92400000     24.52600000
      2.64950000     65.68880000      0.02130000      3.69200000    -20.41400000     25.04300000
      2.64950000     65.68880000      0.02130000      1.98100000    -20.55800000     24.57300000
      3.39970000    457.72960000     -0.00700000      2.58600000    -18.56400000     25.10500000
      2.64950000     65.68880000      0.02530000      2.87400000    -18.52800000     26.15600000
      2.64950000     65.68880000      0.02530000      1.53300000    -18.29900000     25.00800000
      3.39970000    457.72960000     -0.02660000      3.44800000    -17.58900000     24.29500000
      2.47140000     65.68880000      0.06410000      2.84100000    -16.75100000     23.95200000
      3.39970000    359.82400000      0.58960000      4.64600000    -17.05700000     25.10400000
      2.95990000    878.64000000     -0.57480000      5.44400000    -17.81000000     25.65900000
      3.25000000    711.28000000     -0.41570000      4.69700000    -15.74600000     25.23100000
      1.06910000     65.68880000      0.27190000      4.05400000    -15.16500000     24.71300000
      3.39970000    457.72960000     -0.05970000      5.84800000    -15.10500000     25.87600000
      2.47140000     65.68880000      0.08690000      6.79400000    -15.57400000     25.60600000
      3.39970000    457.72960000      0.13030000      5.91700000    -13.53600000     25.54900000
      2.64950000     65.68880000      0.01870000      6.47700000    -13.40700000     24.62300000
      3.39970000    457.72960000     -0.32040000      4.51900000    -12.91200000     25.39300000
      2.64950000     65.68880000      0.08820000      3.95800000    -13.04000000     26.31900000
      2.64950000     65.68880000      0.08820000      4.61800000    -11.84900000     25.17200000
      2.64950000     65.68880000      0.08820000      3.99000000    -13.40400000     24.57700000
      3.39970000    457.72960000     -0.04300000      6.75400000    -12.78700000     26.60800000
      2.64950000     65.68880000      0.02360000      6.23900000    -11.85600000     26.84400000
      2.64950000     65.68880000      0.02360000      6.80100000    -13.41200000     27.50000000
      3.39970000    457.72960000     -0.06600000      8.15600000    -12.48100000     26.13400000
      2.64950000     65.68880000      0.01860000      8.11000000    -11.85600000     25.24200000
      2.64950000     65.68880000      0.01860000      8.69900000    -11.95400000     26.91900000
      2.64950000     65.68880000      0.01860000      8.67200000    -13.41200000     25.89900000
      3.39970000    359.82400000      0.59730000      5.97400000    -15.51600000     27.35200000
      2.95990000    878.64000000     -0.56790000      7.08300000    -15.62800000     27.87100000
      3.25000000    711.28000000     -0.41570000      4.85600000    -15.76400000     28.03000000
      1.06910000     65.68880000      0.27190000      3.94800000    -15.64100000     27.60600000
      3.39970000    457.72960000      0.03370000      4.91600000    -16.13800000     29.43000000
      2.47140000     65.68880000      0.08230000      5.51200000    -15.38200000     29.94100000
      3.39970000    457.72960000     -0.18250000      3.52800000    -16.15500000     30.04100000
      2.64950000     65.68880000      0.06030000      2.92200000    -16.91300000     29.54600000
      2.64950000     65.68880000      0.06030000      3.60100000    -16.38600000     31.10400000
      2.64950000     65.68880000      0.06030000      3.06200000    -15.17800000     29.91300000
      3.39970000    359.82400000      0.59730000      5.61400000    -17.50300000     29.64400000
      2.95990000    878.64000000     -0.56790000      6.13600000    -17.75600000     30.71700000
      3.25000000    711.28000000     -0.41570000      5.62300000    -18.36600000     28.62200000
      1.06910000     65.68880000      0.27190000      5.20900000    -18.09700000     27.74100000
      3.39970000    457.72960000     -0.05180000      6.17100000    -19.73100000     28.75000000
      2.47140000     65.68880000      0.09220000      6.24800000    -20.01300000     29.80000000
      3.39970000    457.72960000     -0.11020000      5.23500000    -20.71900000     28.04400000
      2.64950000     65.68880000      0.04570000      5.28800000    -20.42200000     26.99700000
      2.64950000     65.68880000      0.04570000      5.59900000    -21.74100000     28.15000000
      3.39970000    457.72960000      0.35310000      3.78200000    -20.64300000     28.52300000
      2.64950000     65.68880000     -0.03610000      3.40600000    -19.64100000     28.31800000
      3.39970000    457.72960000     -0.41210000      2.90600000    -21.66200000     27.82700000
      2.64950000     65.68880000      0.10000000      3.28100000    -22.66500000     28.03200000
      2.64950000     65.68880000      0.10000000      1.88400000    -21.57500000     28.19500000
      2.64950000     65.68880000      0.10000000      2.92100000    -21.48100000     26.75200000
      3.39970000    457.72960000     -0.41210000      3.68700000    -20.79200000     30.02900000
      2.64950000     65.68880000      0.10000000      4.25100000    -19.99300000     30.51000000
      2.64950000     65.68880000      0.10000000      2.64300000    -20.73300000     30.33500000
      2.64950000     65.68880000      0.10000000      4.09900000    -21.75700000     30.32600000
      3.39970000    359.82400000      0.59730000      7.56300000    -19.85100000     28.19200000
      2.95990000    878.64000000     -0.56790000      8.27900000    -20.76300000     28.52600000
      3.25000000    711.28000000     -0.41570000      7.94000000    -18.93000000     27.31200000
      1.06910000     65.68880000      0.27190000      7.35000000    -18.13900000     27.09600000
      3.39970000    457.72960000     -0.02750000      9.15200000    -19.10500000     26.55400000
      2.47140000     65.68880000      0.11230000      9.63900000    -20.04300000     26.82000000
      3.39970000    457.72960000     -0.00500000      8.80900000    -19.14000000     25.09100000
      2.64950000     65.68880000      0.03390000      8.06700000    -18.38800000     24.82100000
      2.64950000     65.68880000      0.03390000      9.74200000    -18.93500000     24.56600000
      3.39970000    359.82400000     -0.14150000      8.32000000    -20.40200000     24.58700000
      3.39970000    359.82400000     -0.16380000      7.01200000    -20.76200000     24.36800000
      2.51060000     62.76000000      0.20620000      6.24200000    -20.05700000     24.68100000
      3.25000000    711.28000000     -0.34180000      6.96400000    -22.00100000     23.76900000
      1.06910000     65.68880000      0.34120000      6.12200000    -22.52700000     23.58300000
      3.39970000    359.82400000      0.13800000      8.24300000    -22.46100000     23.59800000
      3.39970000    359.82400000     -0.26010000      8.68800000    -23.69400000     23.12200000
      2.59960000     62.76000000      0.15720000      7.93900000    -24.40900000     22.78000000
      3.39970000    359.82400000     -0.11340000     10.02800000    -23.93200000     23.11200000
      2.59960000     62.76000000      0.14170000     10.39700000    -24.89500000     22.76000000
      3.39970000    359.82400000     -0.19720000     10.93700000    -22.98100000     23.53800000
      2.59960000     62.76000000      0.14470000     12.01100000    -23.15500000     23.46900000
      3.39970000    359.82400000     -0.23870000     10.49700000    -21.75000000     24.07800000
      2.59960000     62.76000000      0.17000000     11.24200000    -21.01500000     24.38200000
      3.39970000    359.82400000      0.12430000      9.11900000    -21.50600000     24.13200000
      3.39970000    359.82400000      0.59730000     10.24100000    -18.07900000     26.84200000
      2.95990000    878.64000000     -0.56790000     10.97000000    -17.72100000     25.95300000
      3.25000000    711.28000000     -0.41570000     10.39300000    -17.62300000     28.09600000
      1.06910000     65.68880000      0.27190000      9.61500000    -17.52900000     28.73300000
      3.39970000    457.72960000     -0.02490000     11.64700000    -16.99100000     28.44700000
      2.47140000     65.68880000      0.08430000     12.36900000    -17.07400000     27.63500000
      3.39970000    457.72960000      0.21170000     11.37300000    -15.53100000     28.70000000
      2.47140000     65.68880000      0.03520000     10.98600000    -15.36800000     29.70600000
      2.47140000     65.68880000      0.03520000     12.26900000    -14.92800000     28.55400000
      3.06650000    880.31360000     -0.65460000     10.40000000    -15.15800000     27.75900000
      1.24730000     41.84000000      0.42750000     10.18400000    -14.23000000     27.87300000
      3.39970000    359.82400000      0.59730000     12.50100000    -17.71600000     29.49900000
      2.95990000    878.64000000     -0.56790000     12.81000000    -17.16700000     30.55000000
      3.25000000    711.28000000     -0.34810000     12.80400000    -18.98900000     29.15600000
      1.06910000     65.68880000      0.27640000     12.18400000    -19.36000000     28.45100000
      3.39970000    457.72960000     -0.29030000     13.86300000    -19.90100000     29.73100000
      2.47140000     65.68880000      0.14380000     13.37700000    -20.29200000     30.62500000
      3.39970000    457.72960000     -0.05380000     14.10800000    -21.06100000     28.76000000
      2.64950000     65.68880000      0.04820000     13.15500000    -21.51400000     28.48600000
      2.64950000     65.68880000      0.04820000     14.60300000    -20.68700000     27.86400000
      3.39970000    457.72960000      0.02270000     14.99300000    -22.10700000     29.43000000
      2.64950000     65.68880000      0.01340000     15.94600000    -21.65500000     29.70400000
      2.64950000     65.68880000      0.01340000     14.49900000    -22.48100000     30.32600000
      3.39970000    457.72960000     -0.03920000     15.23700000    -23.26100000     28.46400000
      2.64950000     65.68880000      0.06110000     14.28400000    -23.71400000     28.19000000
      2.64950000     65.68880000      0.06110000     15.73200000    -22.88700000     27.56800000
      3.39970000    457.72960000     -0.01760000     16.12200000    -24.30600000     29.13400000
      1.96000000     65.68880000      0.11210000     17.07500000    -23.85500000     29.40800000
      1.96000000     65.68880000      0.11210000     15.62700000    -24.68100000     30.03000000
      3.25000000    711.28000000     -0.37410000     16.35700000    -25.41900000     28.20300000
      1.06910000     65.68880000      0.33740000     16.81500000    -25.07200000     27.37200000
      1.06910000     65.68880000      0.33740000     16.94300000    -26.11200000     28.64700000
      1.06910000     65.68880000      0.33740000     15.47400000    -25.83800000     27.94900000
      3.39970000    359.82400000      0.84880000     15.24500000    -19.34500000     30.11100000
      2.95990000    878.64000000     -0.82520000     15.66800000    -18.28000000     29.66400000
      2.95990000    878.64000000     -0.82520000     15.95200000    -19.93400000     30.92600000
      3.25000000    711.28000000      0.18490000     -8.69800000     21.82800000      4.23300000
      1.06910000     65.68880000      0.18980000     -8.12100000     20.99900000      4.20600000
      1.06910000     65.68880000      0.18980000     -8.72400000     22.17500000      5.18100000
      1.06910000     65.68880000      0.18980000     -8.42100000     22.44000000      3.47900000
      3.39970000    457.72960000      0.05670000    -10.11500000     21.42300000      3.91800000
      1.96000000     65.68880000      0.07820000    -10.78400000     21.68300000      4.73900000
      3.39970000    457.72960000      0.25960000    -10.56900000     22.17900000      2.65400000
      2.47140000     65.68880000      0.02730000     -9.84100000     22.95600000      2.42100000
      2.47140000     65.68880000      0.02730000    -10.63100000     21.47900000      1.82100000
      3.06650000    880.31360000     -0.67140000    -11.84800000     22.77500000      2.87100000
      1.24730000     41.84000000      0.42390000    -12.12200000     23.24300000      2.07900000
      3.39970000    359.82400000      0.61630000    -10.24800000     19.89700000      3.75700000
      2.95990000    878.64000000     -0.57220000     -9.61000000     19.30500000      2.90500000
      3.25000000    711.28000000     -0.25480000    -11.10200000     19.27600000      4.60700000
      3.39970000    457.72960000      0.01920000    -12.18100000     19.93100000      5.38800000
      2.47140000     65.68880000      0.03910000    -12.91300000     20.35600000      4.70100000
      2.47140000     65.68880000      0.03910000    -11.75000000     20.72600000      5.99600000
      3.39970000    457.72960000      0.01890000    -12.74100000     18.83500000      6.20700000
      2.64950000     65.68880000      0.02130000    -13.79600000     18.73900000      5.94900000
      2.64950000     65.68880000      0.02130000    -12.64800000     19.12600000      7.25300000
      3.39970000    457.72960000     -0.00700000    -11.99600000     17.56900000      5.93800000
      2.64950000     65.68880000      0.02530000    -12.74100000     16.82500000      5.65400000
      2.64950000     65.68880000      0.02530000    -11.42000000     17.20000000      6.78700000
      3.39970000    457.72960000     -0.02660000    -11.06200000     17.85000000      4.75400000
      2.47140000     65.68880000      0.06410000    -10.04000000     17.53600000      4.96700000
      3.39970000    359.82400000      0.58960000    -11.53900000     17.18800000      3.46200000
      2.95990000    878.64000000     -0.57480000    -12.50800000     17.67600000      2.83800000
      3.25000000    711.28000000     -0.41570000    -10.83100000     16.14900000      3.04000000
      1.06910000     65.68880000      0.27190000     -9.92500000     15.92400000      3.42700000
      3.39970000    457.72960000      0.01430000    -11.28900000     15.40400000      1.88300000
      2.47140000     65.68880000      0.10480000    -11.90500000     16.04800000      1.25500000
      3.39970000    457.72960000     -0.20410000    -10.13200000     14.90900000      1.07100000
      2.64950000     65.68880000      0.07970000     -9.52700000     15.78500000      0.83800000
      2.64950000     65.68880000      0.07970000     -9.52800000     14.18700000      1.62100000
      3.39970000    359.82400000      0.71300000    -10.58600000     14.26900000     -0.23500000
      2.95990000    878.64000000     -0.59310000    -11.74600000     13.95400000     -0.40700000
      3.25000000    711.28000000     -0.91910000     -9.66800000     14.01600000     -1.11200000
      1.06910000     65.68880000      0.41960000     -9.91900000     13.59200000     -1.99400000
      1.06910000     65.68880000      0.41960000     -8.70500000     14.24400000     -0.91100000
      3.39970000    359.82400000      0.59730000    -12.28300000     14.28200000      2.32800000
      2.95990000    878.64000000     -0.56790000    -11.84200000     13.17600000      2.64000000
      3.25000000    711.28000000     -0.41570000    -13.59700000     14.62000000      2.42600000
      1.06910000     65.68880000      0.27190000    -13.88800000     15.55700000      2.18600000
      3.39970000    457.72960000     -0.02750000    -14.61200000     13.68100000      2.91900000
      2.47140000     65.68880000      0.11230000    -14.22200000     13.18000000      3.80500000
      3.39970000    457.72960000     -0.00500000    -15.95700000     14.38300000      3.29400000
      2.64950000     65.68880000      0.03390000    -16.13700000     15.03300000      2.43800000
      2.64950000     65.68880000      0.03390000    -16.81100000     13.72000000      3.43300000
      3.39970000    359.82400000     -0.14150000    -15.90100000     15.28800000      4.52600000
      3.39970000    359.82400000     -0.16380000    -15.97300000     16.62200000      4.52900000
      2.51060000     62.76000000      0.20620000    -16.18700000     17.11400000      3.58000000
      3.25000000    711.28000000     -0.34180000    -15.74700000     17.09600000      5.80500000
      1.06910000     65.68880000      0.34120000    -15.78800000     18.06500000      6.08700000
      3.39970000    359.82400000      0.13800000    -15.51500000     16.03000000      6.64100000
      3.39970000    359.82400000     -0.26010000    -15.29500000     15.98400000      7.97000000
      2.59960000     62.76000000      0.15720000    -15.23900000     16.92500000      8.51700000
      3.39970000    359.82400000     -0.11340000    -15.15400000     14.73600000      8.55700000
      2.59960000     62.76000000      0.14170000    -14.99400000     14.65400000      9.63200000
      3.39970000    359.82400000     -0.19720000    -15.21500000     13.54900000      7.77700000
      2.59960000     62.76000000      0.14470000    -15.10800000     12.56100000      8.22500000
      3.39970000    359.82400000     -0.23870000    -15.40700000     13.62100000      6.46400000
      2.59960000     62.76000000      0.17000000    -15.42000000     12.68500000      5.90600000
      3.39970000    359.82400000      0.12430000    -15.59900000     14.87200000      5.86100000
      3.39970000    359.82400000      0.59730000    -14.84400000     12.61500000      1.81800000
      2.95990000    878.64000000     -0.56790000    -15.26700000     11.50900000      2.15100000
      3.25000000    711.28000000     -0.51630000    -14.43800000     12.87000000      0.55300000
      1.06910000     65.68880000      0.29360000    -14.13000000     13.79700000      0.29600000
      3.39970000    457.72960000      0.03810000    -14.55100000     11.85500000     -0.50500000
      2.47140000     65.68880000      0.08800000    -15.51200000     11.34400000     -0.43700000
      3.39970000    457.72960000     -0.03030000    -14.45200000     12.52700000     -1.87200000
      2.64950000     65.68880000     -0.01220000    -13.51400000     13.02300000     -2.12000000
      2.64950000     65.68880000     -0.01220000    -14.57000000     11.64100000     -2.49500000
      3.39970000    359.82400000      0.79940000    -15.59800000     13.47000000     -2.12000000
      2.95990000    878.64000000     -0.80140000    -16.76200000     12.95000000     -2.15600000
      2.95990000    878.64000000     -0.80140000    -15.39300000     14.67400000     -2.05100000
      3.39970000    359.82400000      0.53660000    -13.49600000     10.70300000     -0.30800000
      2.95990000    878.64000000     -0.58190000    -13.84900000      9.55300000     -0.34500000
      3.25000000    711.28000000     -0.41570000    -12.28700000     11.07000000      0.08300000
      1.06910000     65.68880000      0.27190000    -12.01100000     12.03500000     -0.02700000
      3.39970000    457.72960000      0.03370000    -11.28700000     10.11200000      0.55700000
      2.47140000     65.68880000      0.08230000    -11.18900000      9.38600000     -0.25000000
      3.39970000    457.72960000     -0.18250000     -9.95300000     10.81700000      0.74000000
      2.64950000     65.68880000      0.06030000    -10.03200000     11.54100000      1.55100000
      2.64950000     65.68880000      0.06030000     -9.18400000     10.08400000      0.98300000
      2.64950000     65.68880000      0.06030000     -9.68400000     11.33300000     -0.18200000
      3.39970000    359.82400000      0.59730000    -11.66500000      9.34200000      1.81700000
      2.95990000    878.64000000     -0.56790000    -11.49400000      8.10500000      1.84800000
      3.25000000    711.28000000     -0.41570000    -12.21400000     10.00200000      2.84000000
      1.06910000     65.68880000      0.27190000    -12.25700000     11.01100000      2.81800000
      3.39970000    457.72960000     -0.08750000    -12.71800000      9.31600000      4.01800000
      2.47140000     65.68880000      0.09690000    -11.96800000      8.66100000      4.46100000
      3.39970000    457.72960000      0.29850000    -13.22600000     10.29700000      5.10900000
      2.64950000     65.68880000     -0.02970000    -14.01400000     10.92100000      4.68800000
      3.39970000    457.72960000     -0.31920000    -13.78100000      9.51400000      6.31600000
      2.64950000     65.68880000      0.07910000    -12.99300000      8.89000000      6.73800000
      2.64950000     65.68880000      0.07910000    -14.13400000     10.21400000      7.07300000
      2.64950000     65.68880000      0.07910000    -14.60900000      8.88400000      5.99100000
      3.39970000    457.72960000     -0.31920000    -12.18400000     11.25900000      5.54600000
      2.64950000     65.68880000      0.07910000    -11.85500000     11.85200000      4.69200000
      2.64950000     65.68880000      0.07910000    -12.59600000     11.91900000      6.30900000
      2.64950000     65.68880000      0.07910000    -11.33500000     10.71400000      5.95800000
      3.39970000    359.82400000      0.59730000    -13.90300000      8.32400000      3.61600000
      2.95990000    878.64000000     -0.56790000    -14.00300000      7.18300000      4.11600000
      3.25000000    711.28000000     -0.41570000    -14.81700000      8.76800000      2.78800000
      1.06910000     65.68880000      0.27190000    -14.78200000      9.71800000      2.44600000
      3.39970000    457.72960000      0.03370000    -15.99100000      7.87500000      2.34300000
      2.47140000     65.68880000      0.08230000    -16.50000000      7.48700000      3.22500000
      3.39970000    457.72960000     -0.18250000    -17.00000000      8.65900000      1.50300000
      2.64950000     65.68880000      0.06030000    -16.50800000      9.04700000      0.61100000
      2.64950000     65.68880000      0.06030000    -17.81800000      8.00100000      1.20900000
      2.64950000     65.68880000      0.06030000    -17.39500000      9.48900000      2.08900000
      3.39970000    359.82400000      0.59730000    -15.48900000      6.71800000      1.56100000
      2.95990000    878.64000000     -0.56790000    -16.04100000      5.60600000      1.66200000
      3.25000000    711.28000000     -0.41570000    -14.43300000      6.89300000      0.80300000
      1.06910000     65.68880000      0.27190000    -14.06500000      7.82400000      0.66700000
      3.39970000    457.72960000     -0.00310000    -13.77600000      5.73400000      0.04600000
      2.47140000     65.68880000      0.08500000    -14.51400000      5.28000000     -0.61500000
      3.39970000    457.72960000     -0.00360000    -12.56600000      6.20000000     -0.80700000
      2.64950000     65.68880000      0.01710000    -12.97100000      6.90800000     -1.53000000
      2.64950000     65.68880000      0.01710000    -11.90400000      6.72400000     -0.11800000
      3.39970000    457.72960000     -0.06450000    -11.76600000      5.09700000     -1.55400000
      2.64950000     65.68880000      0.03520000    -11.10700000      5.63900000     -2.23200000
      2.64950000     65.68880000      0.03520000    -11.16700000      4.51400000     -0.85500000
      3.39970000    359.82400000      0.69510000    -12.60600000      4.16500000     -2.35200000
      2.95990000    878.64000000     -0.60860000    -13.56900000      4.56000000     -2.97700000
      3.25000000    711.28000000     -0.94070000    -12.29400000      2.88300000     -2.28100000
      1.06910000     65.68880000      0.42510000    -12.83200000      2.20600000     -2.80300000
      1.06910000     65.68880000      0.42510000    -11.51900000      2.58600000     -1.70500000
      3.39970000    359.82400000      0.59730000    -13.36900000      4.67100000      1.08600000
      2.95990000    878.64000000     -0.56790000    -13.59200000      3.43700000      0.94400000
      3.25000000    711.28000000     -0.41570000    -12.72300000      5.16000000      2.14300000
      1.06910000     65.68880000      0.27190000    -12.50100000      6.14500000      2.17100000
      3.39970000    457.72960000      0.02130000    -12.24000000      4.27400000      3.29600000
      2.47140000     65.68880000      0.11240000    -11.61600000      3.46500000      2.91600000
      3.39970000    457.72960000     -0.12310000    -11.41400000      5.11200000      4.26900000
      2.47140000     65.68880000      0.11120000    -10.69100000      5.69000000      3.69400000
      2.47140000     65.68880000      0.11120000    -12.08700000      5.79100000      4.79200000
      3.53240000   1181.56160000     -0.31190000    -10.48100000      4.27000000      5.53200000
      1.08900000     51.88160000      0.19330000     -9.96900000      5.36800000      6.08200000
      3.39970000    359.82400000      0.59730000    -13.37600000      3.60100000      4.02000000
      2.95990000    878.64000000     -0.56790000    -13.31700000      2.35100000      4.26400000
      3.25000000    711.28000000     -0.51630000    -14.41800000      4.38700000      4.34000000
      1.06910000     65.68880000      0.29360000    -14.41500000      5.36500000      4.08700000
      3.39970000    457.72960000      0.03970000    -15.50900000      3.89200000      5.13200000
      2.47140000     65.68880000      0.11050000    -15.11200000      3.29300000      5.95200000
      3.39970000    457.72960000      0.05600000    -16.35300000      5.03300000      5.72100000
      2.64950000     65.68880000     -0.01730000    -16.54400000      5.72400000      4.90000000
      2.64950000     65.68880000     -0.01730000    -17.29200000      4.58200000      6.04100000
      3.39970000    457.72960000      0.01360000    -15.73600000      5.78300000      6.87600000
      2.64950000     65.68880000     -0.04250000    -14.80300000      6.25800000      6.57100000
      2.64950000     65.68880000     -0.04250000    -16.49000000      6.54900000      7.05800000
      3.39970000    359.82400000      0.80540000    -15.50700000      4.99200000      8.14100000
      2.95990000    878.64000000     -0.81880000    -15.97100000      3.86600000      8.26900000
      2.95990000    878.64000000     -0.81880000    -14.71800000      5.49000000      9.01000000
      3.39970000    359.82400000      0.53660000    -16.39600000      2.93500000      4.38800000
      2.95990000    878.64000000     -0.58190000    -16.93900000      1.97400000      4.99100000
      3.25000000    711.28000000     -0.41570000    -16.75400000      3.24800000      3.15300000
      1.06910000     65.68880000      0.27190000    -16.24100000      3.96600000      2.66100000
      3.39970000    457.72960000     -0.02490000    -17.91500000      2.56200000      2.43100000
      2.47140000     65.68880000      0.08430000    -18.26400000      1.70200000      3.00200000
      3.39970000    457.72960000      0.21170000    -19.10600000      3.58400000      2.28100000
      2.47140000     65.68880000      0.03520000    -19.92100000      3.03600000      1.80800000
      2.47140000     65.68880000      0.03520000    -19.39700000      3.86500000      3.29300000
      3.06650000    880.31360000     -0.65460000    -18.81800000      4.78100000      1.51100000
      1.24730000     41.84000000      0.42750000    -19.60100000      5.33600000      1.47800000
      3.39970000    359.82400000      0.59730000    -17.58400000      2.07700000      1.06800000
      2.95990000    878.64000000     -0.56790000    -18.44100000      1.75400000      0.30600000
      3.25000000    711.28000000     -0.41570000    -16.35000000      2.30600000      0.65400000
      1.06910000     65.68880000      0.27190000    -15.64100000      2.57700000      1.32000000
      3.39970000    457.72960000     -0.02520000    -15.96100000      2.17700000     -0.78200000
      2.47140000     65.68880000      0.06980000    -14.87300000      2.20300000     -0.84200000
      2.47140000     65.68880000      0.06980000    -16.32200000      1.21500000     -1.14500000
      3.39970000    359.82400000      0.59730000    -16.52700000      3.27400000     -1.65200000
      2.95990000    878.64000000     -0.56790000    -16.78100000      3.01300000     -2.80400000
      3.25000000    711.28000000     -0.41570000    -16.80600000      4.44500000     -1.12200000
      1.06910000     65.68880000      0.27190000    -16.59200000      4.61900000     -0.15000000
      3.39970000    457.72960000     -0.02520000    -17.42800000      5.52700000     -1.90500000
      2.47140000     65.68880000      0.06980000    -17.24700000      6.44100000     -1.33900000
      2.47140000     65.68880000      0.06980000    -16.87500000      5.56600000     -2.84300000
      3.39970000    359.82400000      0.59730000    -18.94300000      5.41900000     -2.21700000
      2.95990000    878.64000000     -0.56790000    -19.42000000      5.96000000     -3.21200000
      3.25000000    711.28000000     -0.41570000    -19.69000000      4.75000000     -1.38000000
      1.06910000     65.68880000      0.27190000    -19.25700000      4.31500000     -0.57800000
      3.39970000    457.72960000      0.01430000    -21.14100000      4.53200000     -1.60100000
      2.47140000     65.68880000      0.10480000    -21.39000000      4.83600000     -2.61800000
      3.39970000    457.72960000     -0.20410000    -21.54500000      3.08700000     -1.41600000
      2.64950000     65.68880000      0.07970000    -21.03700000      2.37200000     -2.06300000
      2.64950000     65.68880000      0.07970000    -21.28700000      2.88300000     -0.37700000
      3.39970000    359.82400000      0.71300000    -23.07200000      2.91300000     -1.58900000
      2.95990000    878.64000000     -0.59310000    -23.75000000      3.80600000     -2.08600000
      3.25000000    711.28000000     -0.91910000    -23.55300000      1.75500000     -1.32900000
      1.06910000     65.68880000      0.41960000    -24.54500000      1.59000000     -1.42700000
      1.06910000     65.68880000      0.41960000    -22.93800000      1.01200000     -1.02800000
      3.39970000    359.82400000      0.59730000    -21.93800000      5.45000000     -0.66500000
      2.95990000    878.64000000     -0.56790000    -22.10100000      5.10500000      0.51700000
      3.25000000    711.28000000     -0.41570000    -22.35500000      6.61100000     -1.19400000
      1.06910000     65.68880000      0.27190000    -22.12800000      6.86000000     -2.14600000
      3.39970000    457.72960000     -0.02750000    -23.00500000      7.62100000     -0.34500000
      2.47140000     65.68880000      0.11230000    -22.42100000      7.74700000      0.56700000
      3.39970000    457.72960000     -0.00500000    -23.11100000      8.91300000     -1.01300000
      2.64950000     65.68880000      0.03390000    -23.42400000      8.72100000     -2.03900000
      2.64950000     65.68880000      0.03390000    -23.77300000      9.65300000     -0.56400000
      3.39970000    359.82400000     -0.14150000    -21.74800000      9.54500000     -1.08900000
      3.39970000    359.82400000     -0.16380000    -20.87800000      9.45800000     -2.17900000
      2.51060000     62.76000000      0.20620000    -21.19200000      8.85800000     -3.03300000
      3.25000000    711.28000000     -0.34180000    -19.76500000     10.18300000     -1.92000000
      1.06910000     65.68880000      0.34120000    -19.11900000     10.51300000     -2.62300000
      3.39970000    359.82400000      0.13800000    -19.79600000     10.59400000     -0.61200000
      3.39970000    359.82400000     -0.26010000    -18.91800000     11.43000000      0.06900000
      2.59960000     62.76000000      0.15720000    -18.06400000     11.82300000     -0.48300000
      3.39970000    359.82400000     -0.11340000    -19.16500000     11.70000000      1.33800000
      2.59960000     62.76000000      0.14170000    -18.41200000     12.16900000      1.97100000
      3.39970000    359.82400000     -0.19720000    -20.46300000     11.36900000      1.91200000
      2.59960000     62.76000000      0.14470000    -20.70100000     11.64400000      2.94000000
      3.39970000    359.82400000     -0.23870000    -21.40500000     10.71700000      1.19600000
      2.59960000     62.76000000      0.17000000    -22.43200000     10.74300000      1.55900000
      3.39970000    359.82400000      0.12430000    -21.05300000     10.22300000     -0.07600000
      3.39970000    359.82400000      0.59730000    -24.37500000      7.08700000      0.19700000
      2.95990000    878.64000000     -0.56790000    -24.91200000      7.63300000      1.14100000
      3.25000000    711.28000000     -0.41570000    -24.92900000      6.11100000     -0.47300000
      1.06910000     65.68880000      0.27190000    -24.46300000      5.74700000     -1.29200000
      3.39970000    457.72960000      0.03370000    -26.26700000      5.54200000     -0.10400000
      2.47140000     65.68880000      0.08230000    -26.80000000      6.23000000      0.55300000
      3.39970000    457.72960000     -0.18250000    -27.11000000      5.30600000     -1.34800000
      2.64950000     65.68880000      0.06030000    -26.59400000      4.61200000     -2.01100000
      2.64950000     65.68880000      0.06030000    -28.07300000      4.88400000     -1.06000000
      2.64950000     65.68880000      0.06030000    -27.26800000      6.25200000     -1.86500000
      3.39970000    359.82400000      0.59730000    -26.05900000      4.22500000      0.68800000
      2.95990000    878.64000000     -0.56790000    -27.03000000      3.48800000      0.84100000
      3.25000000    711.28000000     -0.41570000    -24.81700000      3.93700000      1.20000000
      1.06910000     65.68880000      0.27190000    -24.01200000      4.52600000      1.04300000
      3.39970000    457.72960000      0.03370000    -24.61900000      2.66600000      1.87100000
      2.47140000     65.68880000      0.08230000    -24.78600000      1.89300000      1.12100000
      3.39970000    457.72960000     -0.18250000    -23.17700000      2.55000000      2.38200000
      2.64950000     65.68880000      0.06030000    -22.99800000      3.31200000      3.14100000
      2.64950000     65.68880000      0.06030000    -23.02300000      1.56200000      2.81600000
      2.64950000     65.68880000      0.06030000    -22.48400000      2.69400000      1.55300000
      3.39970000    359.82400000      0.59730000    -25.65600000      2.42800000      2.97200000
      2.95990000    878.64000000     -0.56790000    -25.77100000      3.22400000      3.89800000
      3.25000000    711.28000000     -0.41570000    -26.28100000      1.24200000      2.92900000
      1.06910000     65.68880000      0.27190000    -26.21800000      0.68500000      2.08900000
      3.39970000    457.72960000      0.01430000    -27.14900000      0.76900000      4.01400000
      2.47140000     65.68880000      0.10480000    -26.72300000      1.06100000      4.97400000
      3.39970000    457.72960000     -0.20410000    -28.59200000      1.38600000      3.89500000
      2.64950000     65.68880000      0.07970000    -28.43400000      2.46300000      3.83800000
      2.64950000     65.68880000      0.07970000    -29.11700000      1.04900000      3.00200000
      3.39970000    359.82400000      0.71300000    -29.46400000      1.08200000      5.12100000
      2.95990000    878.64000000     -0.59310000    -29.02700000      0.39800000      6.08200000
      3.25000000    711.28000000     -0.91910000    -30.74000000      1.50200000      5.06200000
      1.06910000     65.68880000      0.41960000    -31.36100000      1.33000000      5.83900000
      1.06910000     65.68880000      0.41960000    -31.07100000      1.98700000      4.24000000
      3.39970000    359.82400000      0.59730000    -27.15200000     -0.68700000      4.02400000
      2.95990000    878.64000000     -0.56790000    -28.07500000     -1.32500000      3.54400000
      3.25000000    711.28000000     -0.41570000    -26.11500000     -1.27500000      4.58500000
      1.06910000     65.68880000      0.27190000    -25.40800000     -0.74400000      5.07300000
      3.39970000    457.72960000     -0.03890000    -25.92800000     -2.69400000      4.44900000
      2.47140000     65.68880000      0.10070000    -26.44500000     -3.05100000      3.55800000
      3.39970000    457.72960000      0.36540000    -24.39800000     -3.01300000      4.30300000
      2.47140000     65.68880000      0.00430000    -24.26200000     -4.09100000      4.21000000
      3.39970000    457.72960000     -0.24380000    -23.84100000     -2.32400000      3.06700000
      2.64950000     65.68880000      0.06420000    -23.97600000     -1.24600000      3.15900000
      2.64950000     65.68880000      0.06420000    -22.77900000     -2.55000000      2.97200000
      2.64950000     65.68880000      0.06420000    -24.36800000     -2.68100000      2.18300000
      3.06650000    880.31360000     -0.67610000    -23.64000000     -2.55400000      5.42900000
      1.24730000     41.84000000      0.41020000    -22.71300000     -2.76800000      5.30000000
      3.39970000    359.82400000      0.59730000    -26.50600000     -3.55500000      5.58700000
      2.95990000    878.64000000     -0.56790000    -26.36100000     -4.76800000      5.58300000
      3.25000000    711.28000000     -0.41570000    -27.01800000     -2.90100000      6.61800000
      1.06910000     65.68880000      0.27190000    -27.10900000     -1.89700000      6.55600000
      3.39970000    457.72960000     -0.02520000    -27.46200000     -3.56700000      7.85200000
      2.47140000     65.68880000      0.06980000    -28.31200000     -2.99600000      8.22600000
      2.47140000     65.68880000      0.06980000    -27.79300000     -4.56500000      7.56600000
      3.39970000    359.82400000      0.59730000    -26.42300000     -3.68700000      8.95500000
      2.95990000    878.64000000     -0.56790000    -26.57400000     -4.49700000      9.84900000
      3.25000000    711.28000000     -0.41570000    -25.27700000     -2.97400000      8.85200000
      1.06910000     65.68880000      0.27190000    -25.12400000     -2.37900000      8.05000000
      3.39970000    457.72960000      0.01430000    -24.23200000     -3.07500000      9.83600000
      2.47140000     65.68880000      0.10480000    -24.29900000     -4.05100000     10.31700000
      3.39970000    457.72960000     -0.20410000    -22.84400000     -2.92300000      9.23600000
      2.64950000     65.68880000      0.07970000    -22.16500000     -2.98900000     10.08600000
      2.64950000     65.68880000      0.07970000    -22.60700000     -3.71100000      8.52100000
      3.39970000    359.82400000      0.71300000    -22.64700000     -1.58900000      8.56500000
      2.95990000    878.64000000     -0.59310000    -23.59000000     -0.78100000      8.43000000
      3.25000000    711.28000000     -0.91910000    -21.47000000     -1.37700000      8.05100000
      1.06910000     65.68880000      0.41960000    -21.27500000     -0.50100000      7.58700000
      1.06910000     65.68880000      0.41960000    -20.75700000     -2.08900000      8.11800000
      3.39970000    359.82400000      0.59730000    -24.38900000     -2.02500000     10.96300000
      2.95990000    878.64000000     -0.56790000    -23.41500000     -1.76700000     11.66500000
      3.25000000    711.28000000     -0.41570000    -25.52800000     -1.36200000     11.02300000
      1.06910000     65.68880000      0.27190000    -26.28500000     -1.55900000     10.38400000
      3.39970000    457.72960000     -0.02520000    -25.71700000     -0.34500000     11.99800000
      2.47140000     65.68880000      0.06980000    -26.79300000     -0.23300000     12.13100000
      2.47140000     65.68880000      0.06980000    -25.27300000     -0.71100000     12.92400000
      3.39970000    359.82400000      0.59730000    -25.11300000      1.01700000     11.66200000
      2.95990000    878.64000000     -0.56790000    -25.21500000      1.91900000     12.50800000
      3.25000000    711.28000000     -0.34790000    -24.55900000      1.17900000     10.47000000
      1.06910000     65.68880000      0.27470000    -24.47300000      0.36000000      9.88600000
      3.39970000    457.72960000     -0.24000000    -24.01100000      2.41600000      9.99200000
      2.47140000     65.68880000      0.14260000    -24.31500000      3.22300000     10.65900000
      3.39970000    457.72960000     -0.00940000    -22.47000000      2.37700000      9.93600000
      2.64950000     65.68880000      0.03620000    -22.20300000      1.69000000      9.13300000
      2.64950000     65.68880000      0.03620000    -22.14100000      3.38300000      9.67700000
      3.39970000    457.72960000      0.01870000    -21.78500000      1.93400000     11.23700000
      2.64950000     65.68880000      0.01030000    -21.94800000      2.68500000     12.01000000
      2.64950000     65.68880000      0.01030000    -22.20200000      0.98100000     11.56400000
      3.39970000    457.72960000     -0.04790000    -20.28400000      1.77500000     10.98900000
      2.64950000     65.68880000      0.06210000    -20.16000000      1.50900000      9.93900000
      2.64950000     65.68880000      0.06210000    -19.82500000      2.74600000     11.17400000
      3.39970000    457.72960000     -0.01430000    -19.61400000      0.72500000     11.85900000
      1.96000000     65.68880000      0.11350000    -18.93700000      1.24000000     12.54100000
      1.96000000     65.68880000      0.11350000    -20.39200000      0.22100000     12.43200000
      3.25000000    711.28000000     -0.38540000    -18.83800000     -0.29800000     11.05300000
      1.06910000     65.68880000      0.34000000    -18.11700000      0.16900000     10.52200000
      1.06910000     65.68880000      0.34000000    -18.41500000     -0.96900000     11.67800000
      1.06910000     65.68880000      0.34000000    -19.46500000     -0.77500000     10.42200000
      3.39970000    359.82400000      0.73410000    -24.59800000      2.75800000      8.61700000
      2.95990000    878.64000000     -0.58940000    -25.07600000      1.90400000      7.85500000
      3.25000000    711.28000000     -0.41570000    -24.57900000      4.03500000      8.34600000
      1.06910000     65.68880000      0.27190000    -24.12100000      4.69000000      8.96400000
      3.39970000    457.72960000     -0.00140000    -25.33500000      4.55800000      7.23500000
      2.47140000     65.68880000      0.08760000    -25.51600000      3.76300000      6.51100000
      3.39970000    457.72960000     -0.01520000    -26.65900000      5.10200000      7.69100000
      2.64950000     65.68880000      0.02950000    -26.50800000      5.97400000      8.32800000
      2.64950000     65.68880000      0.02950000    -27.19600000      5.39900000      6.79000000
      3.39970000    359.82400000     -0.00110000    -27.48200000      4.04500000      8.45400000
      3.39970000    359.82400000     -0.19060000    -27.26500000      3.83700000      9.81700000
      2.59960000     62.76000000      0.16990000    -26.46700000      4.39600000     10.30600000
      3.39970000    359.82400000     -0.23410000    -28.04900000      2.93000000     10.56100000
      2.59960000     62.76000000      0.16560000    -27.92700000      2.84500000     11.64100000
      3.39970000    359.82400000      0.32260000    -28.99700000      2.19000000      9.92200000
      3.06650000    880.31360000     -0.55790000    -29.70700000      1.26200000     10.70400000
      1.24730000     41.84000000      0.39920000    -29.43200000      1.25900000     11.62400000
      3.39970000    359.82400000     -0.23410000    -29.19800000      2.32600000      8.57900000
      2.59960000     62.76000000      0.16560000    -29.91200000      1.67400000      8.07600000
      3.39970000    359.82400000     -0.19060000    -28.47600000      3.32100000      7.82600000
      2.59960000     62.76000000      0.16990000    -28.71800000      3.49200000      6.77700000
      3.39970000    359.82400000      0.59730000    -24.51900000      5.59100000      6.41700000
      2.95990000    878.64000000     -0.56790000    -23.94300000      6.50100000      6.98200000
      3.25000000    711.28000000     -0.41570000    -24.64600000      5.47000000      5.09900000
      1.06910000     65.68880000      0.27190000    -25.06800000      4.62200000      4.74800000
      3.39970000    457.72960000     -0.02520000    -24.21200000      6.48800000      4.12800000
      2.47140000     65.68880000      0.06980000    -24.76000000      6.37700000      3.19200000
      2.47140000     65.68880000      0.06980000    -24.37700000      7.48800000      4.52900000
      3.39970000    359.82400000      0.59730000    -22.73600000      6.30300000      3.85800000
      2.95990000    878.64000000     -0.56790000    -22.07600000      5.35400000      4.36100000
      3.25000000    711.28000000     -0.41570000    -22.17800000      7.28100000      3.20600000
      1.06910000     65.68880000      0.27190000    -22.70700000      8.12400000      3.03300000
      3.39970000    457.72960000     -0.02520000    -20.79600000      7.21000000      2.70500000
      2.47140000     65.68880000      0.06980000    -20.69000000      6.28000000      2.14600000
      2.47140000     65.68880000      0.06980000    -20.63800000      8.05600000      2.03600000
      3.39970000    359.82400000      0.59730000    -19.79100000      7.24600000      3.76000000
      2.95990000    878.64000000     -0.56790000    -18.67700000      6.70100000      3.61500000
      3.25000000    711.28000000     -0.41570000    -20.15500000      7.93000000      4.86300000
      1.06910000     65.68880000      0.27190000    -21.05000000      8.39600000      4.90200000
      3.39970000    457.72960000     -0.05180000    -19.25000000      8.12400000      5.93600000
      2.47140000     65.68880000      0.09220000    -18.25100000      7.81400000      5.62800000
      3.39970000    457.72960000     -0.11020000    -19.19800000      9.56000000      6.34900000
      2.64950000     65.68880000      0.04570000    -20.23000000      9.79200000      6.61200000
      2.64950000     65.68880000      0.04570000    -18.57000000      9.64500000      7.23600000
      3.39970000    457.72960000      0.35310000    -18.70100000     10.56300000      5.26200000
      2.64950000     65.68880000     -0.03610000    -19.21600000     10.36700000      4.32100000
      3.39970000    457.72960000     -0.41210000    -19.00000000     11.99500000      5.71800000
      2.64950000     65.68880000      0.10000000    -18.48500000     12.19200000      6.65800000
      2.64950000     65.68880000      0.10000000    -18.65400000     12.69800000      4.96000000
      2.64950000     65.68880000      0.10000000    -20.07400000     12.11500000      5.86000000
      3.39970000    457.72960000     -0.41210000    -17.22700000     10.40200000      4.95400000
      2.64950000     65.68880000      0.10000000    -17.04000000      9.39200000      4.58900000
      2.64950000     65.68880000      0.10000000    -16.93400000     11.12400000      4.19200000
      2.64950000     65.68880000      0.10000000    -16.64500000     10.57400000      5.86000000
      3.39970000    359.82400000      0.59730000    -19.59400000      7.16700000      7.11700000
      2.95990000    878.64000000     -0.56790000    -18.95900000      7.26400000      8.17500000
      3.25000000    711.28000000     -0.41570000    -20.54200000      6.23500000      6.88400000
      1.06910000     65.68880000      0.27190000    -21.10200000      6.31400000      6.04700000
      3.39970000    457.72960000     -0.00310000    -20.85200000      5.17700000      7.81900000
      2.47140000     65.68880000      0.08500000    -21.75400000      4.65400000      7.50100000
      3.39970000    457.72960000     -0.00360000    -19.73900000      4.20500000      7.88200000
      2.64950000     65.68880000      0.01710000    -18.80200000      4.74000000      8.04000000
      2.64950000     65.68880000      0.01710000    -19.90800000      3.51700000      8.71100000
      3.39970000    457.72960000     -0.06450000    -19.66000000      3.39700000      6.54000000
      2.64950000     65.68880000      0.03520000    -19.72400000      4.15800000      5.76300000
      2.64950000     65.68880000      0.03520000    -18.73000000      2.84000000      6.42700000
      3.39970000    359.82400000      0.69510000    -20.82500000      2.43500000      6.37400000
      2.95990000    878.64000000     -0.60860000    -21.85900000      2.74500000      5.73100000
      3.25000000    711.28000000     -0.94070000    -20.71600000      1.33200000      7.03400000
      1.06910000     65.68880000      0.42510000    -21.44800000      0.63900000      6.97700000
      1.06910000     65.68880000      0.42510000    -19.89900000      1.16700000      7.60400000
      3.39970000    359.82400000      0.59730000    -21.18200000      5.77500000      9.21600000
      2.95990000    878.64000000     -0.56790000    -20.65600000      5.35000000     10.22200000
      3.25000000    711.28000000     -0.41570000    -22.09400000      6.73700000      9.23200000
      1.06910000     65.68880000      0.27190000    -22.51500000      7.03500000      8.36400000
      3.39970000    457.72960000     -0.00240000    -22.59000000      7.36300000     10.52500000
      2.47140000     65.68880000      0.09780000    -21.74000000      7.72600000     11.10300000
      3.39970000    457.72960000     -0.03430000    -23.52900000      8.54000000     10.24500000
      2.64950000     65.68880000      0.02950000    -24.05500000      8.40300000      9.30000000
      2.64950000     65.68880000      0.02950000    -24.25300000      8.59700000     11.05800000
      3.39970000    359.82400000      0.01180000    -22.86000000      9.87600000     10.17300000
      3.39970000    359.82400000     -0.12560000    -22.49600000     10.53400000     11.28100000
      2.59960000     62.76000000      0.13300000    -22.66400000     10.06700000     12.25200000
      3.39970000    359.82400000     -0.17040000    -21.89800000     11.82500000     11.20500000
      2.59960000     62.76000000      0.14300000    -21.65800000     12.38800000     12.10700000
      3.39970000    359.82400000     -0.10720000    -21.62200000     12.36300000      9.96000000
      2.59960000     62.76000000      0.12970000    -21.12200000     13.32800000      9.87700000
      3.39970000    359.82400000     -0.17040000    -21.97800000     11.68000000      8.83400000
      2.59960000     62.76000000      0.14300000    -21.78900000     12.12400000      7.85700000
      3.39970000    359.82400000     -0.12560000    -22.57600000     10.43000000      8.92500000
      2.59960000     62.76000000      0.13300000    -22.82500000      9.87800000      8.01900000
      3.39970000    359.82400000      0.59730000    -23.42300000      6.38400000     11.33400000
      2.95990000    878.64000000     -0.56790000    -24.24600000      5.62400000     10.75500000
      3.25000000    711.28000000     -0.34790000    -23.23300000      6.39200000     12.65100000
      1.06910000     65.68880000      0.27470000    -22.39500000      6.80600000     13.03500000
      3.39970000    457.72960000     -0.24000000    -24.18700000      5.75100000     13.58000000
      2.47140000     65.68880000      0.14260000    -24.55400000      4.81700000     13.15500000
      3.39970000    457.72960000     -0.00940000    -23.49400000      5.44500000     14.90600000
      2.64950000     65.68880000      0.03620000    -22.82700000      6.27000000     15.15600000
      2.64950000     65.68880000      0.03620000    -24.24900000      5.34100000     15.68500000
      3.39970000    457.72960000      0.01870000    -22.68900000      4.15400000     14.80300000
      2.64950000     65.68880000      0.01030000    -23.39200000      3.33000000     14.68400000
      2.64950000     65.68880000      0.01030000    -22.05800000      4.22300000     13.91700000
      3.39970000    457.72960000     -0.04790000    -21.81800000      3.90500000     16.02800000
      2.64950000     65.68880000      0.06210000    -21.21600000      4.78900000     16.23600000
      2.64950000     65.68880000      0.06210000    -22.45000000      3.68600000     16.88900000
      3.39970000    457.72960000     -0.01430000    -20.90200000      2.72000000     15.75700000
      1.96000000     65.68880000      0.11350000    -21.51100000      1.81700000     15.79700000
      1.96000000     65.68880000      0.11350000    -20.49700000      2.84000000     14.75200000
      3.25000000    711.28000000     -0.38540000    -19.78400000      2.60700000     16.73100000
      1.06910000     65.68880000      0.34000000    -20.15900000      2.49500000     17.66200000
      1.06910000     65.68880000      0.34000000    -19.21500000      1.80600000     16.49900000
      1.06910000     65.68880000      0.34000000    -19.21900000      3.44300000     16.69300000
      3.39970000    359.82400000      0.73410000    -25.39800000      6.66000000     13.77400000
      2.95990000    878.64000000     -0.58940000    -25.25800000      7.87200000     13.75800000
      3.25000000    711.28000000     -0.25480000    -26.60500000      6.10500000     13.91200000
      3.39970000    457.72960000      0.01920000    -27.01200000      4.68300000     13.85100000
      2.47140000     65.68880000      0.03910000    -26.74000000      4.18700000     14.78300000
      2.47140000     65.68880000      0.03910000    -26.50400000      4.19500000     13.01900000
      3.39970000    457.72960000      0.01890000    -28.52300000      4.75900000     13.64600000
      2.64950000     65.68880000      0.02130000    -29.00500000      3.88500000     14.08500000
      2.64950000     65.68880000      0.02130000    -28.75400000      4.80400000     12.58200000
      3.39970000    457.72960000     -0.00700000    -28.94000000      6.01500000     14.33500000
      2.64950000     65.68880000      0.02530000    -29.04400000      5.86000000     15.40900000
      2.64950000     65.68880000      0.02530000    -29.87000000      6.41900000     13.93500000
      3.39970000    457.72960000     -0.02660000    -27.77300000      6.99700000     14.05500000
      2.47140000     65.68880000      0.06410000    -27.89000000      7.52400000     13.10800000
      3.39970000    359.82400000      0.58960000    -27.65200000      8.02600000     15.20600000
      2.95990000    878.64000000     -0.57480000    -28.09500000      9.15200000     15.04000000
      3.25000000    711.28000000     -0.41570000    -27.06800000      7.64000000     16.34300000
      1.06910000     65.68880000      0.27190000    -26.72100000      6.69900000     16.46600000
      3.39970000    457.72960000      0.03370000    -27.03700000      8.55700000     17.50500000
      2.47140000     65.68880000      0.08230000    -28.04800000      8.95000000     17.61300000
      3.39970000    457.72960000     -0.18250000    -26.65100000      7.82700000     18.80600000
      2.64950000     65.68880000      0.06030000    -25.63800000      7.43600000     18.71700000
      2.64950000     65.68880000      0.06030000    -26.69800000      8.52400000     19.64200000
      2.64950000     65.68880000      0.06030000    -27.34400000      7.00400000     18.98100000
      3.39970000    359.82400000      0.59730000    -26.12200000      9.76200000     17.22900000
      2.95990000    878.64000000     -0.56790000    -26.44900000     10.87400000     17.62700000
      3.25000000    711.28000000     -0.41570000    -25.00700000      9.54600000     16.51800000
      1.06910000     65.68880000      0.27190000    -24.75500000      8.60200000     16.26300000
      3.39970000    457.72960000     -0.03890000    -24.10800000     10.63500000     16.12600000
      2.47140000     65.68880000      0.10070000    -23.87100000     11.24600000     16.99700000
      3.39970000    457.72960000      0.36540000    -22.78700000     10.10200000     15.52200000
      2.47140000     65.68880000      0.00430000    -23.02000000      9.63000000     14.56800000
      3.39970000    457.72960000     -0.24380000    -21.75100000     11.21400000     15.30300000
      2.64950000     65.68880000      0.06420000    -21.51700000     11.68700000     16.25700000
      2.64950000     65.68880000      0.06420000    -20.84300000     10.78700000     14.87800000
      2.64950000     65.68880000      0.06420000    -22.15600000     11.95900000     14.61900000
      3.06650000    880.31360000     -0.67610000    -22.22700000      9.12900000     16.39600000
      1.24730000     41.84000000      0.41020000    -21.40700000      8.79700000     16.02200000
      3.39970000    359.82400000      0.59730000    -24.79300000     11.56300000     15.10200000
      2.95990000    878.64000000     -0.56790000    -24.75100000     12.79800000     15.22500000
      3.25000000    711.28000000     -0.41570000    -25.43600000     10.97000000     14.11400000
      1.06910000     65.68880000      0.27190000    -25.44000000      9.96200000     14.04600000
      3.39970000    457.72960000     -0.02750000    -26.13500000     11.73600000     13.08600000
      2.47140000     65.68880000      0.11230000    -25.43600000     12.35100000     12.52000000
      3.39970000    457.72960000     -0.00500000    -26.80800000     10.76300000     12.13200000
      2.64950000     65.68880000      0.03390000    -25.95500000     10.27100000     11.66600000
      2.64950000     65.68880000      0.03390000    -27.43300000     10.01700000     12.62400000
      3.39970000    359.82400000     -0.14150000    -27.59600000     11.32100000     11.06400000
      3.39970000    359.82400000     -0.16380000    -29.00300000     11.30400000     10.94100000
      2.51060000     62.76000000      0.20620000    -29.57900000     10.88300000     11.76500000
      3.25000000    711.28000000     -0.34180000    -29.35600000     11.85000000      9.74800000
      1.06910000     65.68880000      0.34120000    -30.30200000     11.98900000      9.42300000
      3.39970000    359.82400000      0.13800000    -28.21100000     12.20400000      9.06100000
      3.39970000    359.82400000     -0.26010000    -28.07600000     12.80600000      7.83300000
      2.59960000     62.76000000      0.15720000    -28.98600000     13.10300000      7.31100000
      3.39970000    359.82400000     -0.11340000    -26.80800000     12.99700000      7.33700000
      2.59960000     62.76000000      0.14170000    -26.67700000     13.38300000      6.32600000
      3.39970000    359.82400000     -0.19720000    -25.67200000     12.70500000      8.10600000
      2.59960000     62.76000000      0.14470000    -24.66900000     12.93100000      7.74500000
      3.39970000    359.82400000     -0.23870000    -25.79700000     12.11400000      9.36100000
      2.59960000     62.76000000      0.17000000    -24.89300000     11.89200000      9.92800000
      3.39970000    359.82400000      0.12430000    -27.09900000     11.85900000      9.85500000
      3.39970000    359.82400000      0.59730000    -27.15500000     12.63800000     13.74400000
      2.95990000    878.64000000     -0.56790000    -27.13100000     13.84200000     13.54400000
      3.25000000    711.28000000     -0.41570000    -28.01600000     12.06600000     14.60300000
      1.06910000     65.68880000      0.27190000    -27.96900000     11.07500000     14.79200000
      3.39970000    457.72960000      0.03370000    -29.09000000     12.84800000     15.23800000
      2.47140000     65.68880000      0.08230000    -29.68000000     13.34100000     14.46500000
      3.39970000    457.72960000     -0.18250000    -30.00800000     11.92100000     16.03800000
      2.64950000     65.68880000      0.06030000    -29.43300000     11.42700000     16.82200000
      2.64950000     65.68880000      0.06030000    -30.81000000     12.50500000     16.48900000
      2.64950000     65.68880000      0.06030000    -30.43500000     11.17000000     15.37400000
      3.39970000    359.82400000      0.59730000    -28.50700000     13.95000000     16.13400000
      2.95990000    878.64000000     -0.56790000    -29.02800000     15.06400000     16.18700000
      3.25000000    711.28000000     -0.41570000    -27.45100000     13.59600000     16.86600000
      1.06910000     65.68880000      0.27190000    -27.10900000     12.64700000     16.82600000
      3.39970000    457.72960000      0.03370000    -26.83800000     14.50700000     17.80800000
      2.47140000     65.68880000      0.08230000    -27.63100000     14.81400000     18.49000000
      3.39970000    457.72960000     -0.18250000    -25.72700000     13.82500000     18.62100000
      2.64950000     65.68880000      0.06030000    -24.92200000     13.52000000     17.95300000
      2.64950000     65.68880000      0.06030000    -25.33800000     14.52300000     19.36300000
      2.64950000     65.68880000      0.06030000    -26.13200000     12.94700000     19.12500000
      3.39970000    359.82400000      0.59730000    -26.31700000     15.76300000     17.13000000
      2.95990000    878.64000000     -0.56790000    -26.36500000     16.84100000     17.72500000
      3.25000000    711.28000000     -0.41570000    -25.83400000     15.62100000     15.89700000
      1.06910000     65.68880000      0.27190000    -25.70100000     14.69400000     15.51800000
      3.39970000    457.72960000     -0.00240000    -25.30100000     16.75600000     15.15200000
      2.47140000     65.68880000      0.09780000    -25.19300000     17.62300000     15.80400000
      3.39970000    457.72960000     -0.03430000    -23.95400000     16.39700000     14.60600000
      2.64950000     65.68880000      0.02950000    -24.04400000     15.41100000     14.15100000
      2.64950000     65.68880000      0.02950000    -23.56600000     17.10200000     13.87000000
      3.39970000    359.82400000      0.01180000    -22.93000000     16.28300000     15.66200000
      3.39970000    359.82400000     -0.12560000    -22.79700000     15.11100000     16.38300000
      2.59960000     62.76000000      0.13300000    -23.46400000     14.27600000     16.16800000
      3.39970000    359.82400000     -0.17040000    -21.84300000     14.99100000     17.35500000
      2.59960000     62.76000000      0.14300000    -21.69500000     14.03600000     17.85900000
      3.39970000    359.82400000     -0.10720000    -21.06200000     16.08700000     17.70000000
      2.59960000     62.76000000      0.12970000    -20.33400000     16.01600000     18.50800000
      3.39970000    359.82400000     -0.17040000    -21.21400000     17.28000000     17.00600000
      2.59960000     62.76000000      0.14300000    -20.59100000     18.13900000     17.25300000
      3.39970000    359.82400000     -0.12560000    -22.15000000     17.37600000     16.00800000
      2.59960000     62.76000000      0.13300000    -22.28700000     18.31900000     15.47800000
      3.39970000    359.82400000      0.59730000    -26.22200000     17.39600000     14.08400000
      2.95990000    878.64000000     -0.56790000    -25.75200000     18.11200000     13.19800000
      3.25000000    711.28000000     -0.41570000    -27.51900000     17.13700000     14.16600000
      1.06910000     65.68880000      0.27190000    -27.85600000     16.40900000     14.77900000
      3.39970000    457.72960000     -0.02520000    -28.50200000     17.89300000     13.37500000
      2.47140000     65.68880000      0.06980000    -29.33400000     18.14500000     14.03300000
      2.47140000     65.68880000      0.06980000    -28.01900000     18.80900000     13.03400000
      3.39970000    359.82400000      0.59730000    -29.02700000     17.14900000     12.18900000
      2.95990000    878.64000000     -0.56790000    -29.76400000     17.72500000     11.37800000
      3.25000000    711.28000000     -0.41570000    -28.62300000     15.88900000     12.02700000
      1.06910000     65.68880000      0.27190000    -27.96200000     15.45600000     12.65700000
      3.39970000    457.72960000     -0.02520000    -29.12200000     15.12400000     10.95100000
      2.47140000     65.68880000      0.06980000    -29.14100000     15.74400000     10.05400000
      2.47140000     65.68880000      0.06980000    -28.46400000     14.27000000     10.78800000
      3.39970000    359.82400000      0.59730000    -30.50000000     14.62900000     11.22700000
      2.95990000    878.64000000     -0.56790000    -30.79500000     14.20400000     12.34300000
      3.25000000    711.28000000     -0.41570000    -31.32900000     14.59900000     10.19200000
      1.06910000     65.68880000      0.27190000    -31.08800000     15.05200000      9.32200000
      3.39970000    457.72960000     -0.08750000    -32.62400000     13.99800000     10.30900000
      2.47140000     65.68880000      0.09690000    -32.73300000     13.49700000     11.27100000
      3.39970000    457.72960000      0.29850000    -33.75800000     15.05500000     10.16800000
      2.64950000     65.68880000     -0.02970000    -33.58100000     15.85700000     10.88500000
      3.39970000    457.72960000     -0.31920000    -33.79100000     15.63000000      8.76600000
      2.64950000     65.68880000      0.07910000    -33.96800000     14.82900000      8.04800000
      2.64950000     65.68880000      0.07910000    -34.59200000     16.36600000      8.69300000
      2.64950000     65.68880000      0.07910000    -32.83700000     16.10900000      8.54700000
      3.39970000    457.72960000     -0.31920000    -35.08800000     14.40900000     10.50500000
      2.64950000     65.68880000      0.07910000    -35.06200000     14.03600000     11.52900000
      2.64950000     65.68880000      0.07910000    -35.88500000     15.14600000     10.40800000
      2.64950000     65.68880000      0.07910000    -35.27400000     13.58100000      9.82100000
      3.39970000    359.82400000      0.59730000    -32.74400000     12.88500000      9.26700000
      2.95990000    878.64000000     -0.56790000    -32.06800000     12.89400000      8.25600000
      3.25000000    711.28000000     -0.41570000    -33.51100000     11.85800000      9.61800000
      1.06910000     65.68880000      0.27190000    -33.92200000     11.87700000     10.54000000
      3.39970000    457.72960000     -0.02520000    -33.78800000     10.73200000      8.77300000
      2.47140000     65.68880000      0.06980000    -34.62800000     10.17600000      9.19000000
      2.47140000     65.68880000      0.06980000    -34.04900000     11.09300000      7.77800000
      3.39970000    359.82400000      0.59730000    -32.57900000      9.80000000      8.66300000
      2.95990000    878.64000000     -0.56790000    -31.61600000      9.85900000      9.44200000
      3.25000000    711.28000000     -0.41570000    -32.66400000      8.92600000      7.70200000
      1.06910000     65.68880000      0.27190000    -33.47000000      8.92300000      7.09400000
      3.39970000    457.72960000      0.01430000    -31.61700000      7.94500000      7.46400000
      2.47140000     65.68880000      0.10480000    -31.28400000      7.49800000      8.40100000
      3.39970000    457.72960000     -0.20410000    -32.18700000      6.83900000      6.56800000
      2.64950000     65.68880000      0.07970000    -33.11700000      6.46400000      6.99600000
      2.64950000     65.68880000      0.07970000    -32.38900000      7.28200000      5.59300000
      3.39970000    359.82400000      0.71300000    -31.24600000      5.68800000      6.38600000
      2.95990000    878.64000000     -0.59310000    -30.02900000      5.85900000      6.33600000
      3.25000000    711.28000000     -0.91910000    -31.79800000      4.48900000      6.31300000
      1.06910000     65.68880000      0.41960000    -31.21400000      3.67400000      6.19000000
      1.06910000     65.68880000      0.41960000    -32.80100000      4.39300000      6.38000000
      3.39970000    359.82400000      0.59730000    -30.43800000      8.68000000      6.74800000
      2.95990000    878.64000000     -0.56790000    -30.62900000      9.29300000      5.70700000
      3.25000000    711.28000000     -0.25480000    -29.22600000      8.57200000      7.30000000
      3.39970000    457.72960000      0.01920000    -28.83300000      8.03300000      8.60000000
      2.47140000     65.68880000      0.03910000    -28.86500000      6.94400000      8.55800000
      2.47140000     65.68880000      0.03910000    -29.53200000      8.38700000      9.35800000
      3.39970000    457.72960000      0.01890000    -27.44300000      8.56200000      8.81100000
      2.64950000     65.68880000      0.02130000    -26.84100000      7.79700000      9.30300000
      2.64950000     65.68880000      0.02130000    -27.49100000      9.44800000      9.44400000
      3.39970000    457.72960000     -0.00700000    -26.91300000      8.89100000      7.49400000
      2.64950000     65.68880000      0.02530000    -26.36100000      8.04900000      7.07600000
      2.64950000     65.68880000      0.02530000    -26.25400000      9.75600000      7.56800000
      3.39970000    457.72960000     -0.02660000    -28.10500000      9.22000000      6.60700000
      2.47140000     65.68880000      0.06410000    -28.29800000     10.29300000      6.62500000
      3.39970000    359.82400000      0.58960000    -27.90300000      8.76100000      5.15500000
      2.95990000    878.64000000     -0.57480000    -27.39200000      9.54300000      4.28200000
      3.25000000    711.28000000     -0.41570000    -28.22700000      7.52200000      4.86600000
      1.06910000     65.68880000      0.27190000    -28.52800000      6.90100000      5.60400000
      3.39970000    457.72960000      0.03370000    -28.11600000      6.99000000      3.52400000
      2.47140000     65.68880000      0.08230000    -27.09400000      7.19700000      3.20800000
      3.39970000    457.72960000     -0.18250000    -28.33200000      5.46400000      3.52600000
      2.64950000     65.68880000      0.06030000    -29.35400000      5.24200000      3.83200000
      2.64950000     65.68880000      0.06030000    -28.15900000      5.07100000      2.52400000
      2.64950000     65.68880000      0.06030000    -27.63500000      4.99900000      4.22300000
      3.39970000    359.82400000      0.59730000    -29.07900000      7.59800000      2.49700000
      2.95990000    878.64000000     -0.56790000    -28.89700000      7.38200000      1.29500000
      3.25000000    711.28000000     -0.41570000    -30.11800000      8.25200000      2.96300000
      1.06910000     65.68880000      0.27190000    -30.32300000      8.25400000      3.95200000
      3.39970000    457.72960000      0.03370000    -31.06200000      8.91600000      2.05500000
      2.47140000     65.68880000      0.08230000    -31.03900000      8.40500000      1.09300000
      3.39970000    457.72960000     -0.18250000    -32.50900000      8.83400000      2.62800000
      2.64950000     65.68880000      0.06030000    -32.55000000      9.34900000      3.58800000
      2.64950000     65.68880000      0.06030000    -33.20300000      9.30600000      1.93300000
      2.64950000     65.68880000      0.06030000    -32.78700000      7.78900000      2.76500000
      3.39970000    359.82400000      0.59730000    -30.63200000     10.35600000      1.79600000
      2.95990000    878.64000000     -0.56790000    -31.20400000     11.05300000      0.95100000
      3.25000000    711.28000000     -0.41570000    -29.71300000     10.85000000      2.62500000
      1.06910000     65.68880000      0.27190000    -29.28600000     10.24500000      3.31200000
      3.39970000    457.72960000      0.03370000    -29.30000000     12.24200000      2.58100000
      2.47140000     65.68880000      0.08230000    -30.11600000     12.92700000      2.35200000
      3.39970000    457.72960000     -0.18250000    -28.67500000     12.65600000      3.90300000
      2.64950000     65.68880000      0.06030000    -27.85000000     11.98400000      4.14200000
      2.64950000     65.68880000      0.06030000    -28.30100000     13.67700000      3.82500000
      2.64950000     65.68880000      0.06030000    -29.42500000     12.60400000      4.69200000
      3.39970000    359.82400000      0.59730000    -28.30100000     12.34900000      1.46500000
      2.95990000    878.64000000     -0.56790000    -27.69100000     11.37300000      1.09600000
      3.25000000    711.28000000     -0.41570000    -28.24800000     13.50200000      0.82400000
      1.06910000     65.68880000      0.27190000    -28.88200000     14.25200000      1.06100000
      3.39970000    457.72960000     -0.02490000    -27.27400000     13.73100000     -0.23000000
      2.47140000     65.68880000      0.08430000    -27.38800000     13.00800000     -1.03800000
      3.39970000    457.72960000      0.21170000    -27.51800000     15.09900000     -0.77600000
      2.47140000     65.68880000      0.03520000    -28.57700000     15.33900000     -0.68500000
      2.47140000     65.68880000      0.03520000    -26.93200000     15.82300000     -0.21000000
      3.06650000    880.31360000     -0.65460000    -27.14700000     15.14700000     -2.10900000
      1.24730000     41.84000000      0.42750000    -27.30600000     16.02900000     -2.45400000
      3.39970000    359.82400000      0.59730000    -25.86800000     13.65000000      0.31600000
      2.95990000    878.64000000     -0.56790000    -25.65800000     13.84200000      1.49600000
      3.25000000    711.28000000     -0.34790000    -24.89300000     13.41300000     -0.57600000
      1.06910000     65.68880000      0.27470000    -25.12200000     13.17900000     -1.53200000
      3.39970000    457.72960000     -0.26370000    -23.45500000     13.53000000     -0.20200000
      2.47140000     65.68880000      0.15600000    -23.16600000     12.70700000      0.45200000
      3.39970000    457.72960000     -0.00070000    -22.62000000     13.47800000     -1.42600000
      2.64950000     65.68880000      0.03270000    -22.63800000     12.44000000     -1.75900000
      2.64950000     65.68880000      0.03270000    -23.12500000     14.10400000     -2.16200000
      3.39970000    457.72960000      0.03900000    -21.19000000     13.93200000     -1.27600000
      2.64950000     65.68880000      0.02850000    -21.19400000     14.96600000     -0.93100000
      2.64950000     65.68880000      0.02850000    -20.70800000     13.30200000     -0.52900000
      3.39970000    457.72960000      0.04860000    -20.42800000     13.83800000     -2.58400000
      2.47140000     65.68880000      0.06870000    -20.29300000     12.79000000     -2.85000000
      2.47140000     65.68880000      0.06870000    -20.99200000     14.34200000     -3.36900000
      3.25000000    711.28000000     -0.52950000    -19.06800000     14.48800000     -2.47200000
      1.06910000     65.68880000      0.34560000    -18.27600000     13.86200000     -2.43700000
      3.39970000    359.82400000      0.80760000    -18.84200000     15.80300000     -2.45900000
      3.25000000    711.28000000     -0.86270000    -19.77900000     16.73200000     -2.65800000
      1.06910000     65.68880000      0.44780000    -20.73400000     16.45300000     -2.83300000
      1.06910000     65.68880000      0.44780000    -19.52900000     17.71000000     -2.63300000
      3.25000000    711.28000000     -0.86270000    -17.65500000     16.25100000     -2.19900000
      1.06910000     65.68880000      0.44780000    -16.90500000     15.60300000     -2.00700000
      1.06910000     65.68880000      0.44780000    -17.48500000     17.24700000     -2.18900000
      3.39970000    359.82400000      0.73410000    -23.22800000     14.85300000      0.45700000
      2.95990000    878.64000000     -0.58940000    -22.61400000     14.92900000      1.52600000
      3.25000000    711.28000000     -0.51630000    -23.79300000     15.90800000     -0.11100000
      1.06910000     65.68880000      0.29360000    -24.27300000     15.82000000     -0.99500000
      3.39970000    457.72960000      0.03970000    -23.57800000     17.24300000      0.42700000
      2.47140000     65.68880000      0.11050000    -22.50800000     17.37300000      0.59100000
      3.39970000    457.72960000      0.05600000    -24.09000000     18.40700000     -0.51800000
      2.64950000     65.68880000     -0.01730000    -25.15900000     18.25700000     -0.66800000
      2.64950000     65.68880000     -0.01730000    -23.92500000     19.34800000      0.00700000
      3.39970000    457.72960000      0.01360000    -23.37000000     18.45200000     -1.90800000
      2.64950000     65.68880000     -0.04250000    -23.84400000     19.30200000     -2.40000000
      2.64950000     65.68880000     -0.04250000    -22.30400000     18.64900000     -1.79000000
      3.39970000    359.82400000      0.80540000    -23.56800000     17.17600000     -2.77400000
      2.95990000    878.64000000     -0.81880000    -24.63200000     16.46800000     -2.71800000
      2.95990000    878.64000000     -0.81880000    -22.54600000     16.79900000     -3.49000000
      3.39970000    359.82400000      0.53660000    -24.11600000     17.40900000      1.86300000
      2.95990000    878.64000000     -0.58190000    -23.48000000     18.04200000      2.71700000
      3.25000000    711.28000000     -0.41570000    -25.28200000     16.85000000      2.12000000
      1.06910000     65.68880000      0.27190000    -25.82400000     16.40600000      1.39200000
      3.39970000    457.72960000     -0.00310000    -25.87400000     16.91000000      3.53300000
      2.47140000     65.68880000      0.08500000    -25.80800000     17.92400000      3.92700000
      3.39970000    457.72960000     -0.00360000    -27.34600000     16.49700000      3.48900000
      2.64950000     65.68880000      0.01710000    -27.40400000     15.53200000      2.98500000
      2.64950000     65.68880000      0.01710000    -27.69000000     16.39000000      4.51800000
      3.39970000    457.72960000     -0.06450000    -28.22200000     17.49800000      2.76500000
      2.64950000     65.68880000      0.03520000    -28.39900000     18.30200000      3.47900000
      2.64950000     65.68880000      0.03520000    -27.70700000     17.89600000      1.89100000
      3.39970000    359.82400000      0.69510000    -29.58400000     16.92700000      2.31800000
      2.95990000    878.64000000     -0.60860000    -29.74300000     15.73000000      2.07500000
      3.25000000    711.28000000     -0.94070000    -30.52000000     17.79100000      2.15500000
      1.06910000     65.68880000      0.42510000    -31.43800000     17.48700000      1.86300000
      1.06910000     65.68880000      0.42510000    -30.33400000     18.77000000      2.32000000
      3.39970000    359.82400000      0.59730000    -25.11600000     16.01100000      4.55800000
      2.95990000    878.64000000     -0.56790000    -24.93800000     16.40900000      5.71700000
      3.25000000    711.28000000     -0.41570000    -24.61000000     14.86600000      4.09400000
      1.06910000     65.68880000      0.27190000    -24.81700000     14.58300000      3.14700000
      3.39970000    457.72960000     -0.00310000    -23.78900000     13.96500000      4.93100000
      2.47140000     65.68880000      0.08500000    -24.32500000     13.72200000      5.84800000
      3.39970000    457.72960000     -0.00360000    -23.50000000     12.71900000      4.21200000
      2.64950000     65.68880000      0.01710000    -23.07200000     12.98800000      3.24600000
      2.64950000     65.68880000      0.01710000    -22.76300000     12.16600000      4.79400000
      3.39970000    457.72960000     -0.06450000    -24.74300000     11.84300000      3.99500000
      2.64950000     65.68880000      0.03520000    -25.15700000     11.62700000      4.98000000
      2.64950000     65.68880000      0.03520000    -25.47000000     12.40800000      3.41200000
      3.39970000    359.82400000      0.69510000    -24.46900000     10.54100000      3.29200000
      2.95990000    878.64000000     -0.60860000    -23.58400000      9.77100000      3.67800000
      3.25000000    711.28000000     -0.94070000    -25.21600000     10.30800000      2.24700000
      1.06910000     65.68880000      0.42510000    -25.09200000      9.45400000      1.72200000
      1.06910000     65.68880000      0.42510000    -25.91400000     10.98300000      1.96900000
      3.39970000    359.82400000      0.59730000    -22.53400000     14.70300000      5.28800000
      2.95990000    878.64000000     -0.56790000    -22.06400000     14.60000000      6.41000000
      3.25000000    711.28000000     -0.41570000    -21.97400000     15.42000000      4.31100000
      1.06910000     65.68880000      0.27190000    -22.33200000     15.38300000      3.36700000
      3.39970000    457.72960000     -0.05970000    -20.74000000     16.18700000      4.56100000
      2.47140000     65.68880000      0.08690000    -20.01000000     15.59100000      5.10900000
      3.39970000    457.72960000      0.13030000    -20.11800000     16.67000000      3.23600000
      2.64950000     65.68880000      0.01870000    -20.91900000     17.02300000      2.58700000
      3.39970000    457.72960000     -0.32040000    -19.12100000     17.79300000      3.46500000
      2.64950000     65.68880000      0.08820000    -18.31900000     17.44100000      4.11400000
      2.64950000     65.68880000      0.08820000    -18.70200000     18.10800000      2.50900000
      2.64950000     65.68880000      0.08820000    -19.62500000     18.63700000      3.93700000
      3.39970000    457.72960000     -0.04300000    -19.45300000     15.43600000      2.55000000
      2.64950000     65.68880000      0.02360000    -18.60300000     15.13900000      3.16400000
      2.64950000     65.68880000      0.02360000    -20.19000000     14.63300000      2.53700000
      3.39970000    457.72960000     -0.06600000    -18.99400000     15.70500000      1.17100000
      2.64950000     65.68880000      0.01860000    -18.25700000     16.50800000      1.18300000
      2.64950000     65.68880000      0.01860000    -18.54200000     14.80400000      0.75600000
      2.64950000     65.68880000      0.01860000    -19.84400000     16.00100000      0.55600000
      3.39970000    359.82400000      0.59730000    -20.95900000     17.35100000      5.53800000
      2.95990000    878.64000000     -0.56790000    -20.13400000     17.60300000      6.40900000
      3.25000000    711.28000000     -0.41570000    -22.06900000     18.00500000      5.40700000
      1.06910000     65.68880000      0.27190000    -22.66400000     17.82100000      4.61200000
      3.39970000    457.72960000      0.03370000    -22.45800000     19.12400000      6.35100000
      2.47140000     65.68880000      0.08230000    -21.68000000     19.88700000      6.32100000
      3.39970000    457.72960000     -0.18250000    -23.75800000     19.74600000      5.91800000
      2.64950000     65.68880000      0.06030000    -24.54900000     18.99700000      5.95200000
      2.64950000     65.68880000      0.06030000    -24.00900000     20.56900000      6.58800000
      2.64950000     65.68880000      0.06030000    -23.65900000     20.12400000      4.90000000
      3.39970000    359.82400000      0.59730000    -22.50300000     18.62600000      7.75100000
      2.95990000    878.64000000     -0.56790000    -21.93400000     19.27100000      8.64100000
      3.25000000    711.28000000     -0.41570000    -23.15900000     17.47800000      7.99500000
      1.06910000     65.68880000      0.27190000    -23.77500000     17.09200000      7.29300000
      3.39970000    457.72960000     -0.08750000    -23.15400000     16.86400000      9.33300000
      2.47140000     65.68880000      0.09690000    -23.36300000     17.61800000     10.09200000
      3.39970000    457.72960000      0.29850000    -24.18400000     15.70800000      9.48400000
      2.64950000     65.68880000     -0.02970000    -23.92800000     14.92700000      8.76800000
      3.39970000    457.72960000     -0.31920000    -24.18400000     15.12300000     10.89600000
      2.64950000     65.68880000      0.07910000    -24.44000000     15.90300000     11.61300000
      2.64950000     65.68880000      0.07910000    -24.91800000     14.31900000     10.95700000
      2.64950000     65.68880000      0.07910000    -23.19400000     14.72900000     11.12700000
      3.39970000    457.72960000     -0.31920000    -25.55400000     16.22000000      9.13700000
      2.64950000     65.68880000      0.07910000    -25.55800000     16.58100000      8.10900000
      2.64950000     65.68880000      0.07910000    -26.28100000     15.41400000      9.24100000
      2.64950000     65.68880000      0.07910000    -25.81900000     17.03600000      9.80900000
      3.39970000    359.82400000      0.59730000    -21.74300000     16.47600000      9.73000000
      2.95990000    878.64000000     -0.56790000    -21.35000000     16.69000000     10.88800000
      3.25000000    711.28000000     -0.41570000    -20.94000000     15.88500000      8.82600000
      1.06910000     65.68880000      0.27190000    -21.26600000     15.68000000      7.89200000
      3.39970000    457.72960000      0.03370000    -19.59600000     15.44200000      9.20600000
      2.47140000     65.68880000      0.08230000    -19.70100000     14.78200000     10.06700000
      3.39970000    457.72960000     -0.18250000    -18.89700000     14.67400000      8.08500000
      2.64950000     65.68880000      0.06030000    -18.77600000     15.32400000      7.21900000
      2.64950000     65.68880000      0.06030000    -17.91700000     14.34100000      8.42800000
      2.64950000     65.68880000      0.06030000    -19.49800000     13.80800000      7.80800000
      3.39970000    359.82400000      0.59730000    -18.75500000     16.63400000      9.64900000
      2.95990000    878.64000000     -0.56790000    -17.96500000     16.50500000     10.59000000
      3.25000000    711.28000000     -0.41570000    -18.84100000     17.76200000      8.92400000
      1.06910000     65.68880000      0.27190000    -19.36500000     17.76900000      8.06100000
      3.39970000    457.72960000      0.01430000    -18.08900000     18.95700000      9.28600000
      2.47140000     65.68880000      0.10480000    -17.02800000     18.71200000      9.33400000
      3.39970000    457.72960000     -0.20410000    -18.28500000     20.08000000      8.26700000
      2.64950000     65.68880000      0.07970000    -19.33000000     20.15200000      7.96500000
      2.64950000     65.68880000      0.07970000    -17.98100000     21.01100000      8.74600000
      3.39970000    359.82400000      0.71300000    -17.45200000     19.87700000      7.05100000
      2.95990000    878.64000000     -0.59310000    -16.30800000     19.38700000      7.16600000
      3.25000000    711.28000000     -0.91910000    -17.99100000     20.19200000      5.87500000
      1.06910000     65.68880000      0.41960000    -17.45500000     20.06800000      5.02800000
      1.06910000     65.68880000      0.41960000    -18.93300000     20.55400000      5.83500000
      3.39970000    359.82400000      0.59730000    -18.40700000     19.45900000     10.74400000
      2.95990000    878.64000000     -0.56790000    -17.50900000     19.79100000     11.51800000
      3.25000000    711.28000000     -0.34790000    -19.65800000     19.35600000     11.14400000
      1.06910000     65.68880000      0.27470000    -20.39100000     19.12700000     10.48800000
      3.39970000    457.72960000     -0.26370000    -20.03800000     19.61500000     12.57900000
      2.47140000     65.68880000      0.15600000    -19.69300000     20.59900000     12.89600000
      3.39970000    457.72960000     -0.00070000    -21.52300000     19.56900000     12.69900000
      2.64950000     65.68880000      0.03270000    -21.85000000     18.58300000     12.36800000
      2.64950000     65.68880000      0.03270000    -21.77300000     19.70000000     13.75200000
      3.39970000    457.72960000      0.03900000    -22.20800000     20.61300000     11.89500000
      2.64950000     65.68880000      0.02850000    -22.01900000     21.59800000     12.32100000
      2.64950000     65.68880000      0.02850000    -21.85100000     20.58800000     10.86500000
      3.39970000    457.72960000      0.04860000    -23.67800000     20.33300000     11.92000000
      2.47140000     65.68880000      0.06870000    -23.92300000     19.47600000     11.29300000
      2.47140000     65.68880000      0.06870000    -24.02300000     20.14800000     12.93700000
      3.25000000    711.28000000     -0.52950000    -24.36100000     21.49200000     11.40500000
      1.06910000     65.68880000      0.34560000    -23.81200000     22.24500000     11.01500000
      3.39970000    359.82400000      0.80760000    -25.67000000     21.62300000     11.44200000
      3.25000000    711.28000000     -0.86270000    -26.43300000     20.62600000     11.90800000
      1.06910000     65.68880000      0.44780000    -26.00100000     19.77200000     12.23100000
      1.06910000     65.68880000      0.44780000    -27.43700000     20.73200000     11.93400000
      3.25000000    711.28000000     -0.86270000    -26.22300000     22.74100000     10.99000000
      1.06910000     65.68880000      0.44780000    -25.63800000     23.47800000     10.62300000
      1.06910000     65.68880000      0.44780000    -27.22700000     22.85000000     11.01500000
      3.39970000    359.82400000      0.73410000    -19.41800000     18.60400000     13.58800000
      2.95990000    878.64000000     -0.58940000    -18.90800000     19.02400000     14.65600000
      3.25000000    711.28000000     -0.41570000    -19.41700000     17.30000000     13.21200000
      1.06910000     65.68880000      0.27190000    -19.89400000     17.01300000     12.36900000
      3.39970000    457.72960000     -0.08750000    -18.80900000     16.27000000     14.04800000
      2.47140000     65.68880000      0.09690000    -19.23600000     16.29900000     15.05000000
      3.39970000    457.72960000      0.29850000    -19.05000000     14.86400000     13.44900000
      2.64950000     65.68880000     -0.02970000    -18.75400000     14.87400000     12.40000000
      3.39970000    457.72960000     -0.31920000    -18.23400000     13.80100000     14.20200000
      2.64950000     65.68880000      0.07910000    -18.53000000     13.79100000     15.25100000
      2.64950000     65.68880000      0.07910000    -18.42000000     12.82100000     13.76300000
      2.64950000     65.68880000      0.07910000    -17.17200000     14.03700000     14.12700000
      3.39970000    457.72960000     -0.31920000    -20.51900000     14.49400000     13.52800000
      2.64950000     65.68880000      0.07910000    -21.10800000     15.22100000     12.96900000
      2.64950000     65.68880000      0.07910000    -20.66800000     13.50200000     13.10200000
      2.64950000     65.68880000      0.07910000    -20.83800000     14.49300000     14.57000000
      3.39970000    359.82400000      0.59730000    -17.33000000     16.54200000     14.23800000
      2.95990000    878.64000000     -0.56790000    -16.76500000     16.40400000     15.33100000
      3.25000000    711.28000000     -0.41570000    -16.69100000     16.90200000     13.13900000
      1.06910000     65.68880000      0.27190000    -17.16600000     16.91000000     12.24800000
      3.39970000    457.72960000     -0.05180000    -15.24600000     17.22400000     13.16700000
      2.47140000     65.68880000      0.09220000    -14.68100000     16.36600000     13.53200000
      3.39970000    457.72960000     -0.11020000    -14.76000000     17.56600000     11.78000000
      2.64950000     65.68880000      0.04570000    -14.93300000     16.65500000     11.20700000
      2.64950000     65.68880000      0.04570000    -15.38800000     18.36600000     11.38800000
      3.39970000    457.72960000      0.35310000    -13.30300000     17.96500000     11.66500000
      2.64950000     65.68880000     -0.03610000    -13.11200000     18.80000000     12.33900000
      3.39970000    457.72960000     -0.41210000    -12.40300000     16.81000000     12.02800000
      2.64950000     65.68880000      0.10000000    -12.59300000     15.97500000     11.35400000
      2.64950000     65.68880000      0.10000000    -11.36100000     17.11800000     11.93900000
      2.64950000     65.68880000      0.10000000    -12.60300000     16.50100000     13.05400000
      3.39970000    457.72960000     -0.41210000    -13.05200000     18.44600000     10.25000000
      2.64950000     65.68880000      0.10000000    -13.69200000     19.30300000     10.03800000
      2.64950000     65.68880000      0.10000000    -12.00700000     18.73900000     10.14500000
      2.64950000     65.68880000      0.10000000    -13.27600000     17.64300000      9.54800000
      3.39970000    359.82400000      0.59730000    -14.90500000     18.36300000     14.14200000
      2.95990000    878.64000000     -0.56790000    -13.96200000     18.23700000     14.93100000
      3.25000000    711.28000000     -0.41570000    -15.66500000     19.45000000     14.05500000
      1.06910000     65.68880000      0.27190000    -16.35700000     19.50800000     13.32100000
      3.39970000    457.72960000      0.03370000    -15.48600000     20.59900000     14.92600000
      2.47140000     65.68880000      0.08230000    -14.47100000     20.96500000     14.77200000
      3.39970000    457.72960000     -0.18250000    -16.46400000     21.70600000     14.55400000
      2.64950000     65.68880000      0.06030000    -17.48500000     21.35800000     14.71100000
      2.64950000     65.68880000      0.06030000    -16.27900000     22.58000000     15.17800000
      2.64950000     65.68880000      0.06030000    -16.32900000     21.97300000     13.50600000
      3.39970000    359.82400000      0.59730000    -15.62600000     20.24200000     16.40900000
      2.95990000    878.64000000     -0.56790000    -14.79500000     20.61500000     17.20000000
      3.25000000    711.28000000     -0.51630000    -16.60600000     19.42400000     16.76900000
      1.06910000     65.68880000      0.29360000    -17.24800000     19.07400000     16.07200000
      3.39970000    457.72960000      0.03970000    -16.82300000     19.03500000     18.18400000
      2.47140000     65.68880000      0.11050000    -16.60700000     19.86600000     18.85600000
      3.39970000    457.72960000      0.05600000    -18.28700000     18.64600000     18.34600000
      2.64950000     65.68880000     -0.01730000    -18.86900000     19.51100000     18.02800000
      2.64950000     65.68880000     -0.01730000    -18.46100000     17.81900000     17.65800000
      3.39970000    457.72960000      0.01360000    -18.70800000     18.24000000     19.73500000
      2.64950000     65.68880000     -0.04250000    -19.70100000     17.79500000     19.67600000
      2.64950000     65.68880000     -0.04250000    -17.99900000     17.49700000     20.10000000
      3.39970000    359.82400000      0.80540000    -18.73900000     19.43100000     20.69600000
      2.95990000    878.64000000     -0.81880000    -18.83400000     20.57500000     20.21000000
      2.95990000    878.64000000     -0.81880000    -18.67200000     19.21200000     21.90800000
      3.39970000    359.82400000      0.53660000    -15.94000000     17.86700000     18.72300000
      2.95990000    878.64000000     -0.58190000    -15.54700000     17.90800000     19.88300000
      3.25000000    711.28000000     -0.41570000    -15.68900000     16.83000000     17.89400000
      1.06910000     65.68880000      0.27190000    -15.96300000     16.95600000     16.93000000
      3.39970000    457.72960000     -0.00310000    -15.05200000     15.54200000     18.28500000
      2.47140000     65.68880000      0.08500000    -14.88500000     15.50900000     19.36200000
      3.39970000    457.72960000     -0.00360000    -15.96800000     14.40700000     17.90400000
      2.64950000     65.68880000      0.01710000    -16.11900000     14.47300000     16.82700000
      2.64950000     65.68880000      0.01710000    -15.43900000     13.48400000     18.14000000
      3.39970000    457.72960000     -0.06450000    -17.31000000     14.41200000     18.60200000
      2.64950000     65.68880000      0.03520000    -17.17700000     14.52700000     19.67800000
      2.64950000     65.68880000      0.03520000    -17.85100000     15.27300000     18.21000000
      3.39970000    359.82400000      0.69510000    -18.14400000     13.14800000     18.34300000
      2.95990000    878.64000000     -0.60860000    -17.76000000     12.26600000     17.55800000
      3.25000000    711.28000000     -0.94070000    -19.26300000     13.03400000     19.04700000
      1.06910000     65.68880000      0.42510000    -19.85500000     12.22500000     18.92200000
      1.06910000     65.68880000      0.42510000    -19.51800000     13.75700000     19.70500000
      3.39970000    359.82400000      0.59730000    -13.69000000     15.24100000     17.63300000
      2.95990000    878.64000000     -0.56790000    -12.98500000     14.35500000     18.06400000
      3.25000000    711.28000000     -0.41570000    -13.31700000     16.00600000     16.61600000
      1.06910000     65.68880000      0.27190000    -13.90600000     16.77900000     16.34000000
      3.39970000    457.72960000     -0.02520000    -12.08100000     15.77700000     15.87200000
      2.47140000     65.68880000      0.06980000    -11.86300000     16.64500000     15.25000000
      2.47140000     65.68880000      0.06980000    -11.25900000     15.61500000     16.57000000
      3.39970000    359.82400000      0.59730000    -12.22400000     14.53800000     14.97000000
      2.95990000    878.64000000     -0.56790000    -13.30100000     13.89400000     14.86400000
      3.25000000    711.28000000     -0.41570000    -11.11400000     14.17800000     14.35400000
      1.06910000     65.68880000      0.27190000    -10.26400000     14.71800000     14.43200000
      3.39970000    457.72960000     -0.05180000    -11.10700000     12.99700000     13.49500000
      2.47140000     65.68880000      0.09220000    -11.95800000     13.02200000     12.81400000
      3.39970000    457.72960000     -0.11020000     -9.81900000     12.96800000     12.66800000
      2.64950000     65.68880000      0.04570000     -9.03800000     13.10000000     13.41700000
      2.64950000     65.68880000      0.04570000     -9.71700000     11.98600000     12.20600000
      3.39970000    457.72960000      0.35310000     -9.68600000     14.04800000     11.60000000
      2.64950000     65.68880000     -0.03610000     -9.86300000     15.02700000     12.04600000
      3.39970000    457.72960000     -0.41210000     -8.28200000     14.00400000     11.01300000
      2.64950000     65.68880000      0.10000000     -8.10500000     13.02600000     10.56700000
      2.64950000     65.68880000      0.10000000     -8.18300000     14.77500000     10.24900000
      2.64950000     65.68880000      0.10000000     -7.55200000     14.18000000     11.80300000
      3.39970000    457.72960000     -0.41210000    -10.74600000     13.87700000     10.54500000
      2.64950000     65.68880000      0.10000000    -11.73200000     13.95200000     11.00400000
      2.64950000     65.68880000      0.10000000    -10.63700000     14.65600000      9.79000000
      2.64950000     65.68880000      0.10000000    -10.63800000     12.89900000     10.07600000
      3.39970000    359.82400000      0.59730000    -11.23400000     11.69000000     14.28700000
      2.95990000    878.64000000     -0.56790000    -11.34400000     10.64300000     13.67500000
      3.25000000    711.28000000     -0.51630000    -11.15000000     11.74400000     15.61800000
      1.06910000     65.68880000      0.29360000    -10.86700000     12.61100000     16.05300000
      3.39970000    457.72960000      0.03810000    -11.37600000     10.57800000     16.47500000
      2.47140000     65.68880000      0.08800000    -10.64300000      9.80700000     16.23800000
      3.39970000    457.72960000     -0.03030000    -11.23900000     10.94700000     17.97600000
      2.64950000     65.68880000     -0.01220000    -11.63800000     11.95600000     18.08500000
      2.64950000     65.68880000     -0.01220000    -11.83900000     10.25400000     18.56600000
      3.39970000    359.82400000      0.79940000     -9.79500000     10.91500000     18.46800000
      2.95990000    878.64000000     -0.80140000     -8.88700000     10.50700000     17.71000000
      2.95990000    878.64000000     -0.80140000     -9.55200000     11.27400000     19.63700000
      3.39970000    359.82400000      0.53660000    -12.73000000      9.95600000     16.20300000
      2.95990000    878.64000000     -0.58190000    -12.97900000      8.81000000     16.57500000
      3.25000000    711.28000000     -0.41570000    -13.62200000     10.68800000     15.54100000
      1.06910000     65.68880000      0.27190000    -13.46600000     11.66000000     15.31300000
      3.39970000    457.72960000      0.03370000    -14.91200000     10.10400000     15.22000000
      2.47140000     65.68880000      0.08230000    -15.26300000      9.57900000     16.10800000
      3.39970000    457.72960000     -0.18250000    -15.91100000     11.20600000     14.87800000
      2.64950000     65.68880000      0.06030000    -15.57800000     11.73500000     13.98500000
      2.64950000     65.68880000      0.06030000    -16.89100000     10.76500000     14.69400000
      2.64950000     65.68880000      0.06030000    -15.97900000     11.90600000     15.71000000
      3.39970000    359.82400000      0.59730000    -14.81700000      9.06000000     14.08900000
      2.95990000    878.64000000     -0.56790000    -15.71800000      8.26800000     13.92600000
      3.25000000    711.28000000     -0.41570000    -13.71700000      9.07800000     13.32000000
      1.06910000     65.68880000      0.27190000    -13.06900000      9.83200000     13.50000000
      3.39970000    457.72960000     -0.02750000    -13.38800000      8.11300000     12.25300000
      2.47140000     65.68880000      0.11230000    -14.12200000      7.30800000     12.23200000
      3.39970000    457.72960000     -0.00500000    -13.40300000      8.82200000     10.90100000
      2.64950000     65.68880000      0.03390000    -12.80900000      9.73600000     10.89000000
      2.64950000     65.68880000      0.03390000    -13.01400000      8.12700000     10.15700000
      3.39970000    359.82400000     -0.14150000    -14.83400000      9.21500000     10.43700000
      3.39970000    359.82400000     -0.16380000    -15.73200000      8.43300000      9.77300000
      2.51060000     62.76000000      0.20620000    -15.42400000      7.40900000      9.56100000
      3.25000000    711.28000000     -0.34180000    -16.86800000      9.13400000      9.50800000
      1.06910000     65.68880000      0.34120000    -17.67700000      8.80100000      9.00300000
      3.39970000    359.82400000      0.13800000    -16.74700000     10.36900000     10.09500000
      3.39970000    359.82400000     -0.26010000    -17.61600000     11.37000000     10.19200000
      2.59960000     62.76000000      0.15720000    -18.60400000     11.22300000      9.75500000
      3.39970000    359.82400000     -0.11340000    -17.21500000     12.54200000     10.84400000
      2.59960000     62.76000000      0.14170000    -17.91300000     13.37500000     10.92500000
      3.39970000    359.82400000     -0.19720000    -15.96600000     12.66900000     11.38400000
      2.59960000     62.76000000      0.14470000    -15.63600000     13.59900000     11.84700000
      3.39970000    359.82400000     -0.23870000    -15.06800000     11.59400000     11.35500000
      2.59960000     62.76000000      0.17000000    -14.09800000     11.70000000     11.84100000
      3.39970000    359.82400000      0.12430000    -15.46400000     10.42700000     10.68500000
      3.39970000    359.82400000      0.59730000    -11.97400000      7.54500000     12.56200000
      2.95990000    878.64000000     -0.56790000    -10.96700000      8.01200000     12.02900000
      3.25000000    711.28000000     -0.25480000    -11.88100000      6.54400000     13.46500000
      3.39970000    457.72960000      0.01920000    -12.96700000      5.91700000     14.24100000
      2.47140000     65.68880000      0.03910000    -13.58000000      5.31600000     13.56900000
      2.47140000     65.68880000      0.03910000    -13.57900000      6.70000000     14.68800000
      3.39970000    457.72960000      0.01890000    -12.26800000      5.09800000     15.25800000
      2.64950000     65.68880000      0.02130000    -12.42000000      4.05100000     14.99700000
      2.64950000     65.68880000      0.02130000    -12.73400000      5.30300000     16.22200000
      3.39970000    457.72960000     -0.00700000    -10.80700000      5.45200000     15.28200000
      2.64950000     65.68880000      0.02530000    -10.15600000      4.57900000     15.23900000
      2.64950000     65.68880000      0.02530000    -10.61000000      6.00700000     16.19900000
      3.39970000    457.72960000     -0.02660000    -10.55300000      6.36300000     14.04600000
      2.47140000     65.68880000      0.06410000    -10.24300000      7.34000000     14.41700000
      3.39970000    359.82400000      0.58960000     -9.47600000      5.81300000     13.08400000
      2.95990000    878.64000000     -0.57480000     -8.28100000      6.09100000     13.28900000
      3.25000000    711.28000000     -0.41570000     -9.87800000      5.07600000     12.04900000
      1.06910000     65.68880000      0.27190000    -10.84500000      4.80000000     11.95800000
      3.39970000    457.72960000     -0.03890000     -8.91700000      4.57900000     11.05800000
      2.47140000     65.68880000      0.10070000     -7.91300000      4.70200000     11.46400000
      3.39970000    457.72960000      0.36540000     -9.15000000      3.09400000     10.77200000
      2.47140000     65.68880000      0.00430000    -10.15100000      2.98100000     10.35600000
      3.39970000    457.72960000     -0.24380000     -8.08500000      2.50800000      9.75200000
      2.64950000     65.68880000      0.06420000     -7.08300000      2.62000000     10.16700000
      2.64950000     65.68880000      0.06420000     -8.29000000      1.45100000      9.57900000
      2.64950000     65.68880000      0.06420000     -8.14900000      3.04900000      8.80800000
      3.06650000    880.31360000     -0.67610000     -9.00400000      2.39800000     12.00800000
      1.24730000     41.84000000      0.41020000     -9.14400000      1.45900000     11.86500000
      3.39970000    359.82400000      0.59730000     -8.96600000      5.37400000      9.76900000
      2.95990000    878.64000000     -0.56790000     -7.91400000      5.68400000      9.15900000
      3.25000000    711.28000000     -0.41570000    -10.17600000      5.71700000      9.37300000
      1.06910000     65.68880000      0.27190000    -10.97200000      5.42900000      9.92400000
      3.39970000    457.72960000      0.02130000    -10.41900000      6.40900000      8.12600000
      2.47140000     65.68880000      0.11240000     -9.71700000      6.08300000      7.35900000
      3.39970000    457.72960000     -0.12310000    -11.82400000      6.08400000      7.66500000
      2.47140000     65.68880000      0.11120000    -12.55900000      6.24100000      8.45400000
      2.47140000     65.68880000      0.11120000    -12.10800000      6.66000000      6.78400000
      3.53240000   1181.56160000     -0.31190000    -11.96200000      4.32200000      7.18600000
      1.08900000     51.88160000      0.19330000    -13.24800000      4.36900000      6.85000000
      3.39970000    359.82400000      0.59730000    -10.20000000      7.93000000      8.17200000
      2.95990000    878.64000000     -0.56790000     -9.97500000      8.56100000      7.15700000
      3.25000000    711.28000000     -0.41570000    -10.14600000      8.50200000      9.35200000
      1.06910000     65.68880000      0.27190000    -10.26900000      7.95300000     10.19100000
      3.39970000    457.72960000     -0.02520000     -9.90900000      9.93300000      9.49200000
      2.47140000     65.68880000      0.06980000    -10.81000000     10.43800000      9.14400000
      2.47140000     65.68880000      0.06980000     -9.77200000     10.12800000     10.55600000
      3.39970000    359.82400000      0.59730000     -8.71400000     10.47700000      8.73300000
      2.95990000    878.64000000     -0.56790000     -8.80000000     11.55200000      8.15900000
      3.25000000    711.28000000     -0.41570000     -7.59800000      9.76500000      8.78500000
      1.06910000     65.68880000      0.27190000     -7.60700000      8.90600000      9.31600000
      3.39970000    457.72960000      0.03370000     -6.31600000     10.18600000      8.13900000
      2.47140000     65.68880000      0.08230000     -5.99300000     11.11700000      8.60500000
      3.39970000    457.72960000     -0.18250000     -5.24000000      9.13300000      8.35800000
      2.64950000     65.68880000      0.06030000     -5.54500000      8.19800000      7.88900000
      2.64950000     65.68880000      0.06030000     -4.30300000      9.47200000      7.91500000
      2.64950000     65.68880000      0.06030000     -5.09900000      8.97300000      9.42700000
      3.39970000    359.82400000      0.59730000     -6.46900000     10.43400000      6.65300000
      2.95990000    878.64000000     -0.56790000     -5.74500000     11.25200000      6.06500000
      3.25000000    711.28000000     -0.41570000     -7.44100000      9.78800000      6.03300000
      1.06910000     65.68880000      0.27190000     -7.95800000      9.06100000      6.50600000
      3.39970000    457.72960000      0.03370000     -7.69800000     10.00800000      4.61200000
      2.47140000     65.68880000      0.08230000     -6.73600000      9.90400000      4.10900000
      3.39970000    457.72960000     -0.18250000     -8.66300000      8.91400000      4.07100000
      2.64950000     65.68880000      0.06030000     -9.63300000      9.01100000      4.55800000
      2.64950000     65.68880000      0.06030000     -8.78400000      9.03600000      2.99500000
      2.64950000     65.68880000      0.06030000     -8.24900000      7.92800000      4.28100000
      3.39970000    359.82400000      0.59730000     -8.18900000     11.41200000      4.31300000
      2.95990000    878.64000000     -0.56790000     -8.09700000     11.85200000      3.18000000
      3.25000000    711.28000000     -0.41570000     -8.69800000     12.11300000      5.31500000
      1.06910000     65.68880000      0.27190000     -8.71100000     11.69700000      6.23500000
      3.39970000    457.72960000     -0.02490000     -9.18400000     13.45300000      5.16800000
      2.47140000     65.68880000      0.08430000    -10.01500000     13.47900000      4.46300000
      3.39970000    457.72960000      0.21170000     -9.67100000     13.96400000      6.51000000
      2.47140000     65.68880000      0.03520000    -10.20500000     14.90400000      6.37200000
      2.47140000     65.68880000      0.03520000    -10.33900000     13.23000000      6.96100000
      3.06650000    880.31360000     -0.65460000     -8.52000000     14.18200000      7.39000000
      1.24730000     41.84000000      0.42750000     -8.82500000     14.50600000      8.24100000
      3.39970000    359.82400000      0.59730000     -8.04000000     14.39000000      4.71400000
      2.95990000    878.64000000     -0.56790000     -8.28400000     15.46100000      4.14900000
      3.25000000    711.28000000     -0.41570000     -6.79900000     13.93300000      4.89100000
      1.06910000     65.68880000      0.27190000     -6.61700000     13.01500000      5.27100000
      3.39970000    457.72960000     -0.02520000     -5.64200000     14.78400000      4.52500000
      2.47140000     65.68880000      0.06980000     -4.77700000     14.14400000      4.35000000
      2.47140000     65.68880000      0.06980000     -5.88200000     15.32800000      3.61100000
      3.39970000    359.82400000      0.59730000     -5.30500000     15.78200000      5.62000000
      2.95990000    878.64000000     -0.56790000     -4.36800000     16.56000000      5.45900000
      3.25000000    711.28000000     -0.41570000     -6.05700000     15.81200000      6.71900000
      1.06910000     65.68880000      0.27190000     -6.84700000     15.18900000      6.81100000
      3.39970000    457.72960000     -0.05180000     -5.72800000     16.70300000      7.85700000
      2.47140000     65.68880000      0.09220000     -5.26000000     17.61800000      7.49500000
      3.39970000    457.72960000     -0.11020000     -7.00000000     17.07100000      8.60500000
      2.64950000     65.68880000      0.04570000     -7.38200000     16.11200000      8.95500000
      2.64950000     65.68880000      0.04570000     -6.68400000     17.67000000      9.45900000
      3.39970000    457.72960000      0.35310000     -8.09000000     17.80400000      7.85100000
      2.64950000     65.68880000     -0.03610000     -8.39600000     17.23500000      6.97300000
      3.39970000    457.72960000     -0.41210000     -9.26700000     17.95400000      8.78900000
      2.64950000     65.68880000      0.10000000     -8.96200000     18.52300000      9.66700000
      2.64950000     65.68880000      0.10000000    -10.07400000     18.47900000      8.27900000
      2.64950000     65.68880000      0.10000000     -9.61400000     16.96800000      9.09800000
      3.39970000    457.72960000     -0.41210000     -7.61900000     19.16900000      7.35900000
      2.64950000     65.68880000      0.10000000     -6.76800000     19.04100000      6.69000000
      2.64950000     65.68880000      0.10000000     -8.43000000     19.66200000      6.82300000
      2.64950000     65.68880000      0.10000000     -7.32200000     19.78000000      8.21100000
      3.39970000    359.82400000      0.59730000     -4.82500000     15.96600000      8.85400000
      2.95990000    878.64000000     -0.56790000     -5.01300000     14.78700000      9.04400000
      3.25000000    711.28000000     -0.28020000     -3.90700000     16.66400000      9.52800000
      3.39970000    457.72960000      0.04340000     -3.54500000     18.09000000      9.35400000
      2.47140000     65.68880000      0.03310000     -4.45400000     18.68200000      9.24700000
      2.47140000     65.68880000      0.03310000     -2.93300000     18.19900000      8.45900000
      3.39970000    457.72960000      0.04660000     -2.78200000     18.42100000     10.61800000
      2.64950000     65.68880000      0.01720000     -3.29000000     19.24700000     11.11500000
      2.64950000     65.68880000      0.01720000     -1.77600000     18.73100000     10.33700000
      3.39970000    457.72960000     -0.05430000     -2.74200000     17.18200000     11.50000000
      2.64950000     65.68880000      0.03810000     -3.48900000     17.23200000     12.29200000
      2.64950000     65.68880000      0.03810000     -1.75500000     17.03800000     11.94000000
      3.39970000    457.72960000     -0.13360000     -3.06700000     16.01600000     10.54600000
      2.47140000     65.68880000      0.07760000     -2.17500000     15.65300000     10.03400000
      3.39970000    359.82400000      0.66310000     -3.73800000     14.85300000     11.28900000
      2.95990000    878.64000000     -0.76970000     -3.74700000     14.82100000     12.51400000
      2.95990000    878.64000000     -0.76970000     -4.19900000     13.89800000     10.66700000
      3.25000000    711.28000000      0.29430000     26.12200000     27.99100000     11.86700000
      1.06910000     65.68880000      0.16420000     26.72900000     27.35100000     11.37500000
      1.06910000     65.68880000      0.16420000     26.64000000     28.41500000     12.62300000
      1.06910000     65.68880000      0.16420000     25.64800000     28.57300000     11.19100000
      3.39970000    457.72960000     -0.01000000     25.04000000     27.19100000     12.52800000
      1.96000000     65.68880000      0.08950000     25.09000000     27.37800000     13.60100000
      1.96000000     65.68880000      0.08950000     24.08100000     27.53900000     12.14400000
      3.39970000    359.82400000      0.61630000     25.16000000     25.68300000     12.27800000
      2.95990000    878.64000000     -0.57220000     25.45900000     25.27100000     11.15200000
      3.25000000    711.28000000     -0.25480000     24.92700000     24.82600000     13.32000000
      3.39970000    457.72960000      0.01920000     24.17800000     25.14700000     14.54200000
      2.47140000     65.68880000      0.03910000     23.16800000     25.45000000     14.26700000
      2.47140000     65.68880000      0.03910000     24.67600000     25.97000000     15.05500000
      3.39970000    457.72960000      0.01890000     24.20200000     23.86100000     15.35000000
      2.64950000     65.68880000      0.02130000     23.18100000     23.49000000     15.43600000
      2.64950000     65.68880000      0.02130000     24.59100000     24.08600000     16.34300000
      3.39970000    457.72960000     -0.00700000     25.08700000     22.87400000     14.63800000
      2.64950000     65.68880000      0.02530000     24.56700000     21.91800000     14.70800000
      2.64950000     65.68880000      0.02530000     26.11000000     22.75800000     14.99700000
      3.39970000    457.72960000     -0.02660000     25.09500000     23.35600000     13.18700000
      2.47140000     65.68880000      0.06410000     25.99200000     23.14300000     12.60500000
      3.39970000    359.82400000      0.58960000     23.87200000     22.76500000     12.47500000
      2.95990000    878.64000000     -0.57480000     22.73000000     23.19000000     12.74500000
      3.25000000    711.28000000     -0.41570000     24.07900000     21.81000000     11.58100000
      1.06910000     65.68880000      0.27190000     24.99700000     21.44200000     11.37600000
      3.39970000    457.72960000     -0.02490000     22.94800000     21.27400000     10.85700000
      2.47140000     65.68880000      0.08430000     22.02500000     21.68900000     11.26200000
      3.39970000    457.72960000      0.21170000     23.03300000     21.63100000      9.36200000
      2.47140000     65.68880000      0.03520000     23.89800000     21.14100000      8.91500000
      2.47140000     65.68880000      0.03520000     22.12700000     21.30300000      8.85300000
      3.06650000    880.31360000     -0.65460000     23.16700000     23.04500000      9.23000000
      1.24730000     41.84000000      0.42750000     23.22100000     23.27600000      8.30000000
      3.39970000    359.82400000      0.59730000     22.98000000     19.76100000     11.04700000
      2.95990000    878.64000000     -0.56790000     23.71800000     19.13500000     10.33500000
      3.25000000    711.28000000     -0.25480000     22.26000000     19.20900000     12.05100000
      3.39970000    457.72960000      0.01920000     21.23700000     19.90800000     12.87900000
      2.47140000     65.68880000      0.03910000     20.48900000     20.34300000     12.21600000
      2.47140000     65.68880000      0.03910000     21.72700000     20.70100000     13.44300000
      3.39970000    457.72960000      0.01890000     20.67900000     18.86100000     13.75100000
      2.64950000     65.68880000      0.02130000     19.60600000     18.81100000     13.56600000
      2.64950000     65.68880000      0.02130000     20.85500000     19.15900000     14.78500000
      3.39970000    457.72960000     -0.00700000     21.34600000     17.55900000     13.45100000
      2.64950000     65.68880000      0.02530000     20.52600000     16.89800000     13.17100000
      2.64950000     65.68880000      0.02530000     21.90700000     17.11300000     14.27200000
      3.39970000    457.72960000     -0.02660000     22.26700000     17.78300000     12.25000000
      2.47140000     65.68880000      0.06410000     23.28500000     17.43000000     12.41600000
      3.39970000    359.82400000      0.58960000     21.69600000     17.12400000     10.97900000
      2.95990000    878.64000000     -0.57480000     20.72000000     17.65200000     10.39700000
      3.25000000    711.28000000     -0.41570000     22.32600000     16.05000000     10.52400000
      1.06910000     65.68880000      0.27190000     23.22400000     15.76200000     10.88600000
      3.39970000    457.72960000      0.01430000     21.78700000     15.34200000      9.37400000
      2.47140000     65.68880000      0.10480000     21.16300000     16.01300000      8.78300000
      3.39970000    457.72960000     -0.20410000     22.91800000     14.83000000      8.49600000
      2.64950000     65.68880000      0.07970000     23.44300000     15.76600000      8.30500000
      2.64950000     65.68880000      0.07970000     23.61000000     14.10700000      8.92700000
      3.39970000    359.82400000      0.71300000     22.41600000     14.29500000      7.20300000
      2.95990000    878.64000000     -0.59310000     21.25700000     13.97900000      7.09600000
      3.25000000    711.28000000     -0.91910000     23.29900000     13.98200000      6.31200000
      1.06910000     65.68880000      0.41960000     23.00300000     13.61500000      5.41900000
      1.06910000     65.68880000      0.41960000     24.28100000     14.10600000      6.51300000
      3.39970000    359.82400000      0.59730000     20.82200000     14.26100000      9.87300000
      2.95990000    878.64000000     -0.56790000     21.24700000     13.14600000     10.14900000
      3.25000000    711.28000000     -0.41570000     19.56100000     14.63200000     10.03700000
      1.06910000     65.68880000      0.27190000     19.33400000     15.60500000      9.89100000
      3.39970000    457.72960000     -0.02750000     18.52500000     13.75400000     10.48000000
      2.47140000     65.68880000      0.11230000     18.89200000     13.20200000     11.34500000
      3.39970000    457.72960000     -0.00500000     17.25300000     14.46800000     10.86800000
      2.64950000     65.68880000      0.03390000     17.03200000     15.14300000     10.04100000
      2.64950000     65.68880000      0.03390000     16.39500000     13.82000000     11.04700000
      3.39970000    359.82400000     -0.14150000     17.41400000     15.36300000     12.14600000
      3.39970000    359.82400000     -0.16380000     17.39500000     16.72700000     12.16800000
      2.51060000     62.76000000      0.20620000     17.16000000     17.22600000     11.22800000
      3.25000000    711.28000000     -0.34180000     17.68600000     17.18600000     13.41200000
      1.06910000     65.68880000      0.34120000     17.88900000     18.14700000     13.64800000
      3.39970000    359.82400000      0.13800000     17.80400000     16.10700000     14.26700000
      3.39970000    359.82400000     -0.26010000     18.08600000     16.04500000     15.59800000
      2.59960000     62.76000000      0.15720000     18.18400000     16.98400000     16.14200000
      3.39970000    359.82400000     -0.11340000     18.23000000     14.79800000     16.17600000
      2.59960000     62.76000000      0.14170000     18.46400000     14.70800000     17.23700000
      3.39970000    359.82400000     -0.19720000     18.07800000     13.62700000     15.40800000
      2.59960000     62.76000000      0.14470000     18.15700000     12.64600000     15.87600000
      3.39970000    359.82400000     -0.23870000     17.83300000     13.67900000     14.08700000
      2.59960000     62.76000000      0.17000000     17.62800000     12.74100000     13.57100000
      3.39970000    359.82400000      0.12430000     17.72100000     14.93300000     13.46600000
      3.39970000    359.82400000      0.59730000     18.18600000     12.66700000      9.41500000
      2.95990000    878.64000000     -0.56790000     17.76600000     11.55500000      9.79200000
      3.25000000    711.28000000     -0.51630000     18.54300000     12.89300000      8.16400000
      1.06910000     65.68880000      0.29360000     18.85600000     13.80900000      7.87400000
      3.39970000    457.72960000      0.03810000     18.37700000     11.86600000      7.14500000
      2.47140000     65.68880000      0.08800000     17.39700000     11.39700000      7.23500000
      3.39970000    457.72960000     -0.03030000     18.48900000     12.51700000      5.73300000
      2.64950000     65.68880000     -0.01220000     19.40300000     12.93200000      5.30800000
      2.64950000     65.68880000     -0.01220000     18.23900000     11.58800000      5.22000000
      3.39970000    359.82400000      0.79940000     17.32000000     13.54000000      5.55600000
      2.95990000    878.64000000     -0.80140000     16.17300000     13.03500000      5.54500000
      2.95990000    878.64000000     -0.80140000     17.53600000     14.70300000      5.80300000
      3.39970000    359.82400000      0.53660000     19.34400000     10.78000000      7.38900000
      2.95990000    878.64000000     -0.58190000     19.00700000      9.61400000      7.23000000
      3.25000000    711.28000000     -0.41570000     20.59800000     11.15900000      7.69400000
      1.06910000     65.68880000      0.27190000     20.90500000     12.11600000      7.59400000
      3.39970000    457.72960000      0.03370000     21.58100000     10.15600000      8.03900000
      2.47140000     65.68880000      0.08230000     21.57400000      9.43600000      7.22000000
      3.39970000    457.72960000     -0.18250000     22.95400000     10.78600000      8.11700000
      2.64950000     65.68880000      0.06030000     22.98000000     11.50200000      8.93800000
      2.64950000     65.68880000      0.06030000     23.70100000     10.01100000      8.28900000
      2.64950000     65.68880000      0.06030000     23.17200000     11.29900000      7.18100000
      3.39970000    359.82400000      0.59730000     21.22900000      9.38100000      9.29700000
      2.95990000    878.64000000     -0.56790000     21.43300000      8.11900000      9.33400000
      3.25000000    711.28000000     -0.41570000     20.74600000     10.02700000     10.35400000
      1.06910000     65.68880000      0.27190000     20.75400000     11.03700000     10.37100000
      3.39970000    457.72960000     -0.08750000     20.28500000      9.32500000     11.53300000
      2.47140000     65.68880000      0.09690000     21.01900000      8.61400000     11.91300000
      3.39970000    457.72960000      0.29850000     19.87900000     10.29000000     12.69000000
      2.64950000     65.68880000     -0.02970000     19.09700000     10.95600000     12.32700000
      3.39970000    457.72960000     -0.31920000     19.37700000      9.53300000     13.88100000
      2.64950000     65.68880000      0.07910000     20.15900000      8.86700000     14.24500000
      2.64950000     65.68880000      0.07910000     19.10300000     10.23500000     14.66900000
      2.64950000     65.68880000      0.07910000     18.50300000      8.94600000     13.59700000
      3.39970000    457.72960000     -0.31920000     20.98100000     11.23000000     13.09100000
      2.64950000     65.68880000      0.07910000     21.26500000     11.84300000     12.23600000
      2.64950000     65.68880000      0.07910000     20.63400000     11.87400000     13.89900000
      2.64950000     65.68880000      0.07910000     21.84400000     10.65600000     13.42900000
      3.39970000    359.82400000      0.59730000     19.09800000      8.36000000     11.22100000
      2.95990000    878.64000000     -0.56790000     19.00300000      7.21900000     11.70200000
      3.25000000    711.28000000     -0.41570000     18.19000000      8.78700000     10.36500000
      1.06910000     65.68880000      0.27190000     18.21100000      9.73500000     10.01700000
      3.39970000    457.72960000      0.03370000     17.08200000      7.93700000      9.97700000
      2.47140000     65.68880000      0.08230000     16.64200000      7.58000000     10.90800000
      3.39970000    457.72960000     -0.18250000     16.00100000      8.76000000      9.19500000
      2.64950000     65.68880000      0.06030000     16.42400000      9.11700000      8.25600000
      2.64950000     65.68880000      0.06030000     15.14000000      8.12500000      8.98700000
      2.64950000     65.68880000      0.06030000     15.68600000      9.61200000      9.79800000
      3.39970000    359.82400000      0.59730000     17.48300000      6.74800000      9.18300000
      2.95990000    878.64000000     -0.56790000     16.83900000      5.70800000      9.28500000
      3.25000000    711.28000000     -0.41570000     18.54600000      6.90500000      8.36700000
      1.06910000     65.68880000      0.27190000     18.94500000      7.82200000      8.22300000
      3.39970000    457.72960000     -0.00310000     19.10700000      5.76400000      7.59700000
      2.47140000     65.68880000      0.08500000     18.32200000      5.31700000      6.98700000
      3.39970000    457.72960000     -0.00360000     20.24600000      6.22300000      6.67300000
      2.64950000     65.68880000      0.01710000     19.78600000      6.86500000      5.92100000
      2.64950000     65.68880000      0.01710000     20.91900000      6.81500000      7.29300000
      3.39970000    457.72960000     -0.06450000     21.05200000      5.09000000      5.96600000
      2.64950000     65.68880000      0.03520000     21.72500000      5.63300000      5.30300000
      2.64950000     65.68880000      0.03520000     21.63600000      4.49100000      6.66500000
      3.39970000    359.82400000      0.69510000     20.20300000      4.17000000      5.13900000
      2.95990000    878.64000000     -0.60860000     19.22200000      4.56400000      4.55700000
      3.25000000    711.28000000     -0.94070000     20.52100000      2.88400000      5.18200000
      1.06910000     65.68880000      0.42510000     19.98500000      2.21600000      4.64600000
      1.06910000     65.68880000      0.42510000     21.29800000      2.57800000      5.75100000
      3.39970000    359.82400000      0.59730000     19.55800000      4.70400000      8.61900000
      2.95990000    878.64000000     -0.56790000     19.23400000      3.51100000      8.49400000
      3.25000000    711.28000000     -0.41570000     20.26100000      5.19100000      9.67200000
      1.06910000     65.68880000      0.27190000     20.48300000      6.17600000      9.68200000
      3.39970000    457.72960000      0.02130000     20.72400000      4.36400000     10.78700000
      2.47140000     65.68880000      0.11240000     21.41300000      3.59400000     10.43900000
      3.39970000    457.72960000     -0.12310000     21.45800000      5.26300000     11.78200000
      2.47140000     65.68880000      0.11120000     21.19500000      6.31500000     11.67000000
      2.47140000     65.68880000      0.11120000     21.30100000      4.95800000     12.81700000
      3.53240000   1181.56160000     -0.31190000     23.19600000      5.16100000     11.50000000
      1.08900000     51.88160000      0.19330000     23.54400000      6.00600000     12.46700000
      3.39970000    359.82400000      0.59730000     19.61700000      3.66200000     11.51200000
      2.95990000    878.64000000     -0.56790000     19.64100000      2.41100000     11.76300000
      3.25000000    711.28000000     -0.51630000     18.61200000      4.45300000     11.87700000
      1.06910000     65.68880000      0.29360000     18.64400000      5.43100000     11.62800000
      3.39970000    457.72960000      0.03970000     17.52400000      3.99300000     12.69900000
      2.47140000     65.68880000      0.11050000     17.92700000      3.35300000     13.48400000
      3.39970000    457.72960000      0.05600000     16.73300000      5.16000000     13.36500000
      2.64950000     65.68880000     -0.01730000     16.53200000      5.87600000     12.56800000
      2.64950000     65.68880000     -0.01730000     15.79400000      4.72600000     13.70800000
      3.39970000    457.72960000      0.01360000     17.39400000      5.84600000     14.48500000
      2.64950000     65.68880000     -0.04250000     18.33400000      6.22700000     14.08600000
      2.64950000     65.68880000     -0.04250000     16.73800000      6.68200000     14.72900000
      3.39970000    359.82400000      0.80540000     17.66900000      5.03400000     15.74100000
      2.95990000    878.64000000     -0.81880000     17.11900000      3.94100000     15.90200000
      2.95990000    878.64000000     -0.81880000     18.47100000      5.52000000     16.57200000
      3.39970000    359.82400000      0.53660000     16.50100000      3.07900000     12.02400000
      2.95990000    878.64000000     -0.58190000     16.01600000      2.07800000     12.64700000
      3.25000000    711.28000000     -0.41570000     16.09600000      3.42200000     10.80800000
      1.06910000     65.68880000      0.27190000     16.55300000      4.16500000     10.29900000
      3.39970000    457.72960000     -0.02490000     14.94600000      2.73400000     10.16800000
      2.47140000     65.68880000      0.08430000     14.62600000      1.87800000     10.76100000
      3.39970000    457.72960000      0.21170000     13.77400000      3.73600000     10.07500000
      2.47140000     65.68880000      0.03520000     12.92400000      3.19500000      9.65900000
      2.47140000     65.68880000      0.03520000     13.54100000      4.05000000     11.09200000
      3.06650000    880.31360000     -0.65460000     14.04500000      4.88500000      9.27300000
      1.24730000     41.84000000      0.42750000     13.27400000      5.45700000      9.26300000
      3.39970000    359.82400000      0.59730000     15.26000000      2.21600000      8.78100000
      2.95990000    878.64000000     -0.56790000     14.36700000      1.87200000      8.04600000
      3.25000000    711.28000000     -0.41570000     16.46700000      2.44900000      8.30100000
      1.06910000     65.68880000      0.27190000     17.20700000      2.76500000      8.91100000
      3.39970000    457.72960000     -0.02520000     16.76800000      2.26100000      6.89800000
      2.47140000     65.68880000      0.06980000     17.84900000      2.29000000      6.76400000
      2.47140000     65.68880000      0.06980000     16.38900000      1.28800000      6.58500000
      3.39970000    359.82400000      0.59730000     16.12200000      3.36000000      6.02000000
      2.95990000    878.64000000     -0.56790000     15.94300000      3.09600000      4.87800000
      3.25000000    711.28000000     -0.41570000     15.81600000      4.52800000      6.53200000
      1.06910000     65.68880000      0.27190000     15.92400000      4.65900000      7.52800000
      3.39970000    457.72960000     -0.02520000     15.33600000      5.62800000      5.75100000
      2.47140000     65.68880000      0.06980000     15.53100000      6.55500000      6.29100000
      2.47140000     65.68880000      0.06980000     15.86800000      5.64400000      4.80000000
      3.39970000    359.82400000      0.59730000     13.82500000      5.51500000      5.47800000
      2.95990000    878.64000000     -0.56790000     13.32700000      6.09400000      4.51800000
      3.25000000    711.28000000     -0.41570000     13.08900000      4.85500000      6.35300000
      1.06910000     65.68880000      0.27190000     13.54400000      4.43100000      7.14900000
      3.39970000    457.72960000      0.01430000     11.63100000      4.66900000      6.19900000
      2.47140000     65.68880000      0.10480000     11.33300000      4.95600000      5.19100000
      3.39970000    457.72960000     -0.20410000     11.24200000      3.24500000      6.42400000
      2.64950000     65.68880000      0.07970000     11.74300000      2.54300000      5.75700000
      2.64950000     65.68880000      0.07970000     11.51600000      3.02300000      7.45500000
      3.39970000    359.82400000      0.71300000      9.73100000      3.07100000      6.27100000
      2.95990000    878.64000000     -0.59310000      9.01700000      3.98800000      5.81800000
      3.25000000    711.28000000     -0.91910000      9.26300000      1.89200000      6.54500000
      1.06910000     65.68880000      0.41960000      8.27200000      1.71400000      6.46300000
      1.06910000     65.68880000      0.41960000      9.89200000      1.15800000      6.83900000
      3.39970000    359.82400000      0.59730000     10.89200000      5.58000000      7.18100000
      2.95990000    878.64000000     -0.56790000     10.73900000      5.24700000      8.35800000
      3.25000000    711.28000000     -0.41570000     10.47300000      6.73700000      6.65300000
      1.06910000     65.68880000      0.27190000     10.63700000      6.97600000      5.68600000
      3.39970000    457.72960000     -0.02750000      9.84300000      7.78900000      7.56100000
      2.47140000     65.68880000      0.11230000     10.45000000      7.90200000      8.45900000
      3.39970000    457.72960000     -0.00500000      9.75300000      9.10900000      6.87900000
      2.64950000     65.68880000      0.03390000      9.34600000      8.99300000      5.87400000
      2.64950000     65.68880000      0.03390000      9.15700000      9.83600000      7.43100000
      3.39970000    359.82400000     -0.14150000     11.14700000      9.71800000      6.71900000
      3.39970000    359.82400000     -0.16380000     11.93300000      9.63000000      5.58400000
      2.51060000     62.76000000      0.20620000     11.55600000      9.04500000      4.74500000
      3.25000000    711.28000000     -0.34180000     13.10100000     10.35500000      5.78500000
      1.06910000     65.68880000      0.34120000     13.76100000     10.62900000      5.07100000
      3.39970000    359.82400000      0.13800000     13.13600000     10.75300000      7.09800000
      3.39970000    359.82400000     -0.26010000     14.11200000     11.46200000      7.79600000
      2.59960000     62.76000000      0.15720000     15.03900000     11.70400000      7.27600000
      3.39970000    359.82400000     -0.11340000     13.84800000     11.81100000      9.09100000
      2.59960000     62.76000000      0.14170000     14.58000000     12.36300000      9.68100000
      3.39970000    359.82400000     -0.19720000     12.61000000     11.45700000      9.68700000
      2.59960000     62.76000000      0.14470000     12.39500000     11.74400000     10.71600000
      3.39970000    359.82400000     -0.23870000     11.67200000     10.76500000      9.01500000
      2.59960000     62.76000000      0.17000000     10.81600000     10.40200000      9.58400000
      3.39970000    359.82400000      0.12430000     11.89000000     10.43500000      7.67100000
      3.39970000    359.82400000      0.59730000      8.46400000      7.30400000      8.09000000
      2.95990000    878.64000000     -0.56790000      7.99900000      7.82400000      9.07400000
      3.25000000    711.28000000     -0.41570000      7.86300000      6.34000000      7.45800000
      1.06910000     65.68880000      0.27190000      8.27000000      5.99200000      6.60100000
      3.39970000    457.72960000      0.03370000      6.57200000      5.79300000      7.88700000
      2.47140000     65.68880000      0.08230000      6.08300000      6.52100000      8.53400000
      3.39970000    457.72960000     -0.18250000      5.68000000      5.55700000      6.64600000
      2.64950000     65.68880000      0.06030000      6.15200000      4.82300000      5.99300000
      2.64950000     65.68880000      0.06030000      4.70500000      5.18600000      6.96400000
      2.64950000     65.68880000      0.06030000      5.55300000      6.49500000      6.10600000
      3.39970000    359.82400000      0.59730000      6.74600000      4.50900000      8.71500000
      2.95990000    878.64000000     -0.56790000      5.82600000      3.72900000      8.82600000
      3.25000000    711.28000000     -0.41570000      7.96800000      4.15900000      9.09100000
      1.06910000     65.68880000      0.27190000      8.78000000      4.71400000      8.86000000
      3.39970000    457.72960000      0.03370000      8.17700000      2.85400000      9.79400000
      2.47140000     65.68880000      0.08230000      7.98400000      2.07900000      9.05200000
      3.39970000    457.72960000     -0.18250000      9.63800000      2.72000000     10.28000000
      2.64950000     65.68880000      0.06030000      9.84300000      3.48300000     11.03100000
      2.64950000     65.68880000      0.06030000      9.78700000      1.73200000     10.71700000
      2.64950000     65.68880000      0.06030000     10.31600000      2.85000000      9.43600000
      3.39970000    359.82400000      0.59730000      7.22200000      2.62700000     10.95500000
      2.95990000    878.64000000     -0.56790000      7.14800000      3.41100000     11.87500000
      3.25000000    711.28000000     -0.41570000      6.58300000      1.48800000     10.94000000
      1.06910000     65.68880000      0.27190000      6.64600000      0.91400000     10.11100000
      3.39970000    457.72960000      0.01430000      5.71300000      1.03600000     12.03700000
      2.47140000     65.68880000      0.10480000      6.15500000      1.33900000     12.98600000
      3.39970000    457.72960000     -0.20410000      4.27900000      1.63800000     11.94100000
      2.64950000     65.68880000      0.07970000      4.27100000      2.72400000     11.84700000
      2.64950000     65.68880000      0.07970000      3.86900000      1.19200000     11.03500000
      3.39970000    359.82400000      0.71300000      3.38700000      1.24100000     13.13100000
      2.95990000    878.64000000     -0.59310000      3.83000000      0.62500000     14.10100000
      3.25000000    711.28000000     -0.91910000      2.15500000      1.71400000     13.09200000
      1.06910000     65.68880000      0.41960000      1.51000000      1.49600000     13.83800000
      1.06910000     65.68880000      0.41960000      1.86300000      2.29100000     12.31600000
      3.39970000    359.82400000      0.59730000      5.65200000     -0.45500000     12.07000000
      2.95990000    878.64000000     -0.56790000      4.70500000     -1.09000000     11.57400000
      3.25000000    711.28000000     -0.41570000      6.70300000     -1.07300000     12.59700000
      1.06910000     65.68880000      0.27190000      7.41700000     -0.55600000     13.09000000
      3.39970000    457.72960000     -0.03890000      6.90200000     -2.51700000     12.39300000
      2.47140000     65.68880000      0.10070000      6.32900000     -2.87500000     11.53800000
      3.39970000    457.72960000      0.36540000      8.43900000     -2.81500000     12.13400000
      2.47140000     65.68880000      0.00430000      8.59000000     -3.89200000     12.06000000
      3.39970000    457.72960000     -0.24380000      8.87100000     -2.16800000     10.87200000
      2.64950000     65.68880000      0.06420000      8.72100000     -1.09100000     10.94500000
      2.64950000     65.68880000      0.06420000      9.92700000     -2.37600000     10.69900000
      2.64950000     65.68880000      0.06420000      8.28300000     -2.56100000     10.04200000
      3.06650000    880.31360000     -0.67610000      9.21700000     -2.32200000     13.23100000
      1.24730000     41.84000000      0.41020000     10.14600000     -2.50400000     13.07200000
      3.39970000    359.82400000      0.59730000      6.36400000     -3.35700000     13.56600000
      2.95990000    878.64000000     -0.56790000      6.48800000     -4.55600000     13.56100000
      3.25000000    711.28000000     -0.41570000      5.90100000     -2.67800000     14.62100000
      1.06910000     65.68880000      0.27190000      5.84300000     -1.67100000     14.56400000
      3.39970000    457.72960000     -0.02520000      5.47000000     -3.33200000     15.86700000
      2.47140000     65.68880000      0.06980000      4.65400000     -2.73600000     16.27500000
      2.47140000     65.68880000      0.06980000      5.09700000     -4.32000000     15.59700000
      3.39970000    359.82400000      0.59730000      6.54500000     -3.48200000     16.92000000
      2.95990000    878.64000000     -0.56790000      6.43800000     -4.31900000     17.77800000
      3.25000000    711.28000000     -0.41570000      7.66500000     -2.76200000     16.79400000
      1.06910000     65.68880000      0.27190000      7.74500000     -2.07800000     16.05500000
      3.39970000    457.72960000      0.01430000      8.79000000     -2.92800000     17.70800000
      2.47140000     65.68880000      0.10480000      8.73500000     -3.92500000     18.14500000
      3.39970000    457.72960000     -0.20410000     10.16400000     -2.76600000     17.01800000
      2.64950000     65.68880000      0.07970000     10.89400000     -2.86800000     17.82100000
      2.64950000     65.68880000      0.07970000     10.33400000     -3.54300000     16.27300000
      3.39970000    359.82400000      0.71300000     10.35500000     -1.40700000     16.35600000
      2.95990000    878.64000000     -0.59310000      9.43500000     -0.60700000     16.25500000
      3.25000000    711.28000000     -0.91910000     11.54900000     -1.17500000     15.81700000
      1.06910000     65.68880000      0.41960000     11.73200000     -0.29100000     15.36500000
      1.06910000     65.68880000      0.41960000     12.26700000     -1.88400000     15.86300000
      3.39970000    359.82400000      0.59730000      8.69300000     -1.86200000     18.80900000
      2.95990000    878.64000000     -0.56790000      9.69900000     -1.59200000     19.44600000
      3.25000000    711.28000000     -0.41570000      7.53600000     -1.21000000     18.92600000
      1.06910000     65.68880000      0.27190000      6.75100000     -1.41500000     18.32500000
      3.39970000    457.72960000     -0.02520000      7.38000000     -0.18300000     19.92900000
      2.47140000     65.68880000      0.06980000      6.31200000     -0.09700000     20.12700000
      2.47140000     65.68880000      0.06980000      7.88800000     -0.53900000     20.82500000
      3.39970000    359.82400000      0.59730000      7.93300000      1.20200000     19.55800000
      2.95990000    878.64000000     -0.56790000      7.92600000      2.07400000     20.43500000
      3.25000000    711.28000000     -0.34790000      8.46500000      1.37900000     18.33300000
      1.06910000     65.68880000      0.27470000      8.46800000      0.57400000     17.72300000
      3.39970000    457.72960000     -0.24000000      9.07100000      2.59900000     17.85800000
      2.47140000     65.68880000      0.14260000      8.80000000      3.40300000     18.54200000
      3.39970000    457.72960000     -0.00940000     10.61200000      2.52800000     17.76400000
      2.64950000     65.68880000      0.03620000     10.84600000      1.84500000     16.94700000
      2.64950000     65.68880000      0.03620000     10.95800000      3.53000000     17.51000000
      3.39970000    457.72960000      0.01870000     11.31400000      2.05400000     19.04400000
      2.64950000     65.68880000      0.01030000     11.17100000      2.78900000     19.83600000
      2.64950000     65.68880000      0.01030000     10.90000000      1.09600000     19.35800000
      3.39970000    457.72960000     -0.04790000     12.81900000      1.89300000     18.75900000
      2.64950000     65.68880000      0.06210000     12.91500000      1.65600000     17.70000000
      2.64950000     65.68880000      0.06210000     13.28200000      2.85900000     18.95800000
      3.39970000    457.72960000     -0.01430000     13.51000000      0.82300000     19.58100000
      1.96000000     65.68880000      0.11350000     14.22100000      1.32200000     20.23900000
      1.96000000     65.68880000      0.11350000     12.74800000      0.32500000     20.18100000
      3.25000000    711.28000000     -0.38540000     14.23500000     -0.19900000     18.74100000
      1.06910000     65.68880000      0.34000000     14.94200000      0.26200000     18.18600000
      1.06910000     65.68880000      0.34000000     14.67200000     -0.88100000     19.34400000
      1.06910000     65.68880000      0.34000000     13.57600000     -0.66200000     18.13100000
      3.39970000    359.82400000      0.73410000      8.50200000      2.93700000     16.52800000
      2.95990000    878.64000000     -0.58940000      7.92300000      2.07800000     15.79600000
      3.25000000    711.28000000     -0.41570000      8.58300000      4.22100000     16.22100000
      1.06910000     65.68880000      0.27190000      9.12600000      4.86500000     16.77800000
      3.39970000    457.72960000     -0.00140000      7.78000000      4.75300000     15.15000000
      2.47140000     65.68880000      0.08760000      7.57600000      3.96900000     14.42100000
      3.39970000    457.72960000     -0.01520000      6.42000000      5.29600000     15.69300000
      2.64950000     65.68880000      0.02950000      6.61500000      6.15500000     16.33500000
      2.64950000     65.68880000      0.02950000      5.84900000      5.61700000     14.82200000
      3.39970000    359.82400000     -0.00110000      5.61600000      4.24600000     16.47300000
      3.39970000    359.82400000     -0.19060000      5.84800000      4.03800000     17.82700000
      2.59960000     62.76000000      0.16990000      6.66500000      4.57200000     18.31100000
      3.39970000    359.82400000     -0.23410000      5.05700000      3.16500000     18.56200000
      2.59960000     62.76000000      0.16560000      5.20000000      3.09900000     19.64100000
      3.39970000    359.82400000      0.32260000      4.05700000      2.43900000     17.95400000
      3.06650000    880.31360000     -0.55790000      3.39800000      1.51700000     18.75300000
      1.24730000     41.84000000      0.39920000      3.72800000      1.49800000     19.65400000
      3.39970000    359.82400000     -0.23410000      3.80700000      2.59600000     16.62600000
      2.59960000     62.76000000      0.16560000      3.00100000      2.04200000     16.14500000
      3.39970000    359.82400000     -0.19060000      4.60400000      3.48700000     15.86800000
      2.59960000     62.76000000      0.16990000      4.43600000      3.59200000     14.79600000
      3.39970000    359.82400000      0.59730000      8.51500000      5.78200000     14.34800000
      2.95990000    878.64000000     -0.56790000      9.12400000      6.68700000     14.87300000
      3.25000000    711.28000000     -0.41570000      8.39500000      5.64000000     13.05100000
      1.06910000     65.68880000      0.27190000      7.98200000      4.78400000     12.70900000
      3.39970000    457.72960000     -0.02520000      8.81600000      6.63000000     12.08700000
      2.47140000     65.68880000      0.06980000      8.23600000      6.52000000     11.17100000
      2.47140000     65.68880000      0.06980000      8.66300000      7.62900000     12.49600000
      3.39970000    359.82400000      0.59730000     10.27600000      6.45000000     11.76700000
      2.95990000    878.64000000     -0.56790000     10.90200000      5.51200000     12.21300000
      3.25000000    711.28000000     -0.41570000     10.80500000      7.42400000     11.04700000
      1.06910000     65.68880000      0.27190000     10.28200000      8.27400000     10.88900000
      3.39970000    457.72960000     -0.02520000     12.16100000      7.31100000     10.45300000
      2.47140000     65.68880000      0.06980000     12.23800000      6.36600000      9.91600000
      2.47140000     65.68880000      0.06980000     12.31700000      8.13600000      9.75800000
      3.39970000    359.82400000      0.59730000     13.20900000      7.35800000     11.50100000
      2.95990000    878.64000000     -0.56790000     14.31500000      6.80200000     11.33700000
      3.25000000    711.28000000     -0.41570000     12.94400000      8.05800000     12.60000000
      1.06910000     65.68880000      0.27190000     12.07900000      8.57300000     12.67800000
      3.39970000    457.72960000     -0.05180000     13.88100000      8.15500000     13.65900000
      2.47140000     65.68880000      0.09220000     14.87100000      7.84800000     13.32300000
      3.39970000    457.72960000     -0.11020000     13.95700000      9.66800000     14.14800000
      2.64950000     65.68880000      0.04570000     12.94300000      9.93100000     14.44800000
      2.64950000     65.68880000      0.04570000     14.62100000      9.74300000     15.00900000
      3.39970000    457.72960000      0.35310000     14.43000000     10.62700000     13.05400000
      2.64950000     65.68880000     -0.03610000     13.87600000     10.43000000     12.13600000
      3.39970000    457.72960000     -0.41210000     14.19000000     12.06400000     13.49300000
      2.64950000     65.68880000      0.10000000     14.74400000     12.26100000     14.41100000
      2.64950000     65.68880000      0.10000000     14.52800000     12.74400000     12.71100000
      2.64950000     65.68880000      0.10000000     13.12600000     12.21700000     13.67200000
      3.39970000    457.72960000     -0.41210000     15.90800000     10.45500000     12.67800000
      2.64950000     65.68880000      0.10000000     16.07500000      9.44100000     12.31400000
      2.64950000     65.68880000      0.10000000     16.17000000     11.16900000     11.89700000
      2.64950000     65.68880000      0.10000000     16.53000000     10.63300000     13.55500000
      3.39970000    359.82400000      0.59730000     13.57400000      7.25400000     14.83500000
      2.95990000    878.64000000     -0.56790000     14.19600000      7.37400000     15.94200000
      3.25000000    711.28000000     -0.41570000     12.56200000      6.41200000     14.67600000
      1.06910000     65.68880000      0.27190000     11.92300000      6.57100000     13.91000000
      3.39970000    457.72960000     -0.00310000     12.24300000      5.33200000     15.64800000
      2.47140000     65.68880000      0.08500000     11.31500000      4.83700000     15.36100000
      3.39970000    457.72960000     -0.00360000     13.33200000      4.32100000     15.67400000
      2.64950000     65.68880000      0.01710000     14.28700000      4.82700000     15.81500000
      2.64950000     65.68880000      0.01710000     13.16100000      3.63200000     16.50100000
      3.39970000    457.72960000     -0.06450000     13.35800000      3.51600000     14.31500000
      2.64950000     65.68880000      0.03520000     13.29600000      4.27500000     13.53500000
      2.64950000     65.68880000      0.03520000     14.26000000      2.92100000     14.17200000
      3.39970000    359.82400000      0.69510000     12.15800000      2.60800000     14.20100000
      2.95990000    878.64000000     -0.60860000     11.12300000      2.93100000     13.56300000
      3.25000000    711.28000000     -0.94070000     12.23500000      1.54700000     14.88600000
      1.06910000     65.68880000      0.42510000     11.47500000      0.88200000     14.86800000
      1.06910000     65.68880000      0.42510000     13.05600000      1.37000000     15.44700000
      3.39970000    359.82400000      0.59730000     11.92000000      5.88900000     17.03600000
      2.95990000    878.64000000     -0.56790000     12.50000000      5.44900000     18.03000000
      3.25000000    711.28000000     -0.41570000     10.97800000      6.83000000     17.11200000
      1.06910000     65.68880000      0.27190000     10.49400000      7.12000000     16.27400000
      3.39970000    457.72960000     -0.00240000     10.58900000      7.42900000     18.37300000
      2.47140000     65.68880000      0.09780000     11.48400000      7.74000000     18.91300000
      3.39970000    457.72960000     -0.03430000      9.68000000      8.66900000     18.16500000
      2.64950000     65.68880000      0.02950000      9.17000000      8.50400000     17.21600000
      2.64950000     65.68880000      0.02950000      8.94100000      8.80900000     18.95400000
      3.39970000    359.82400000      0.01180000     10.42200000      9.97100000     18.03400000
      3.39970000    359.82400000     -0.12560000     10.86500000     10.64500000     19.15900000
      2.59960000     62.76000000      0.13300000     10.69300000     10.21300000     20.14500000
      3.39970000    359.82400000     -0.17040000     11.53800000     11.88700000     19.03700000
      2.59960000     62.76000000      0.14300000     11.91000000     12.39600000     19.92600000
      3.39970000    359.82400000     -0.10720000     11.72400000     12.45700000     17.78000000
      2.59960000     62.76000000      0.12970000     12.23800000     13.41300000     17.68000000
      3.39970000    359.82400000     -0.17040000     11.25900000     11.81300000     16.67000000
      2.59960000     62.76000000      0.14300000     11.40900000     12.25600000     15.68500000
      3.39970000    359.82400000     -0.12560000     10.59000000     10.58500000     16.79300000
      2.59960000     62.76000000      0.13300000     10.18900000     10.09200000     15.90800000
      3.39970000    359.82400000      0.59730000      9.78200000      6.46000000     19.21200000
      2.95990000    878.64000000     -0.56790000      8.91400000      5.78100000     18.66200000
      3.25000000    711.28000000     -0.34790000      9.98700000      6.49700000     20.53400000
      1.06910000     65.68880000      0.27470000     10.82200000      6.93800000     20.89200000
      3.39970000    457.72960000     -0.24000000      9.06600000      5.87300000     21.48900000
      2.47140000     65.68880000      0.14260000      8.66800000      4.95300000     21.06100000
      3.39970000    457.72960000     -0.00940000      9.77200000      5.53600000     22.79500000
      2.64950000     65.68880000      0.03620000     10.46000000      6.34400000     23.04300000
      2.64950000     65.68880000      0.03620000      9.02700000      5.43900000     23.58400000
      3.39970000    457.72960000      0.01870000     10.54200000      4.24000000     22.66700000
      2.64950000     65.68880000      0.01030000      9.81600000      3.43700000     22.54000000
      2.64950000     65.68880000      0.01030000     11.16200000      4.31300000     21.77400000
      3.39970000    457.72960000     -0.04790000     11.41900000      3.94200000     23.86800000
      2.64950000     65.68880000      0.06210000     12.06000000      4.79800000     24.07800000
      2.64950000     65.68880000      0.06210000     10.79500000      3.73300000     24.73700000
      3.39970000    457.72960000     -0.01430000     12.28100000      2.72800000     23.56000000
      1.96000000     65.68880000      0.11350000     11.63500000      1.85100000     23.57900000
      1.96000000     65.68880000      0.11350000     12.68800000      2.85800000     22.55700000
      3.25000000    711.28000000     -0.38540000     13.39400000      2.54300000     24.52500000
      1.06910000     65.68880000      0.34000000     13.01700000      2.42200000     25.45400000
      1.06910000     65.68880000      0.34000000     13.92800000      1.72500000     24.27000000
      1.06910000     65.68880000      0.34000000     13.99300000      3.35600000     24.50700000
      3.39970000    359.82400000      0.73410000      7.88500000      6.80800000     21.74500000
      2.95990000    878.64000000     -0.58940000      8.05500000      8.02000000     21.71300000
      3.25000000    711.28000000     -0.25480000      6.66800000      6.27000000     21.85000000
      3.39970000    457.72960000      0.01920000      6.21800000      4.86800000     21.78800000
      2.47140000     65.68880000      0.03910000      6.48700000      4.35800000     22.71300000
      2.47140000     65.68880000      0.03910000      6.69800000      4.36900000     20.94600000
      3.39970000    457.72960000      0.01890000      4.71500000      4.99400000     21.60700000
      2.64950000     65.68880000      0.02130000      4.21400000      4.12300000     22.02900000
      2.64950000     65.68880000      0.02130000      4.47300000      5.07300000     20.54700000
      3.39970000    457.72960000     -0.00700000      4.33600000      6.26200000     22.34500000
      2.64950000     65.68880000      0.02530000      4.24100000      6.10800000     23.42000000
      2.64950000     65.68880000      0.02530000      3.41200000      6.69200000     21.95700000
      3.39970000    457.72960000     -0.02660000      5.52000000      7.20800000     22.05300000
      2.47140000     65.68880000      0.06410000      5.41300000      7.76100000     21.12000000
      3.39970000    359.82400000      0.58960000      5.65400000      8.20300000     23.22800000
      2.95990000    878.64000000     -0.57480000      5.28600000      9.37100000     23.06600000
      3.25000000    711.28000000     -0.41570000      6.24300000      7.78900000     24.34900000
      1.06910000     65.68880000      0.27190000      6.50000000      6.82100000     24.47800000
      3.39970000    457.72960000      0.03370000      6.39000000      8.70900000     25.49100000
      2.47140000     65.68880000      0.08230000      5.40200000      9.14400000     25.64100000
      3.39970000    457.72960000     -0.18250000      6.80300000      7.98500000     26.76900000
      2.64950000     65.68880000      0.06030000      7.79500000      7.55200000     26.63800000
      2.64950000     65.68880000      0.06030000      6.82300000      8.69300000     27.59800000
      2.64950000     65.68880000      0.06030000      6.08700000      7.19200000     26.98600000
      3.39970000    359.82400000      0.59730000      7.34100000      9.88700000     25.14500000
      2.95990000    878.64000000     -0.56790000      7.07500000     11.02200000     25.58000000
      3.25000000    711.28000000     -0.41570000      8.41300000      9.63600000     24.36900000
      1.06910000     65.68880000      0.27190000      8.59600000      8.70800000     24.01400000
      3.39970000    457.72960000     -0.03890000      9.35400000     10.71500000     24.02200000
      2.47140000     65.68880000      0.10070000      9.61600000     11.28400000     24.91400000
      3.39970000    457.72960000      0.36540000     10.63800000     10.17600000     23.39200000
      2.47140000     65.68880000      0.00430000     10.36900000      9.69700000     22.45100000
      3.39970000    457.72960000     -0.24380000     11.70200000     11.28700000     23.12400000
      2.64950000     65.68880000      0.06420000     11.97200000     11.76600000     24.06500000
      2.64950000     65.68880000      0.06420000     12.59000000     10.84000000     22.67600000
      2.64950000     65.68880000      0.06420000     11.28800000     12.03100000     22.44400000
      3.06650000    880.31360000     -0.67610000     11.20100000      9.19800000     24.25500000
      1.24730000     41.84000000      0.41020000     12.00900000      8.85500000     23.86600000
      3.39970000    359.82400000      0.59730000      8.67000000     11.67000000     23.01500000
      2.95990000    878.64000000     -0.56790000      8.74800000     12.90700000     23.14800000
      3.25000000    711.28000000     -0.41570000      7.98000000     11.09100000     22.03400000
      1.06910000     65.68880000      0.27190000      7.95100000     10.08400000     21.96100000
      3.39970000    457.72960000     -0.02750000      7.26300000     11.87600000     21.04100000
      2.47140000     65.68880000      0.11230000      7.96900000     12.45600000     20.44700000
      3.39970000    457.72960000     -0.00500000      6.49500000     10.97900000     20.12800000
      2.64950000     65.68880000      0.03390000      7.28300000     10.40700000     19.63800000
      2.64950000     65.68880000      0.03390000      5.83200000     10.29900000     20.66300000
      3.39970000    359.82400000     -0.14150000      5.71300000     11.57800000     19.08400000
      3.39970000    359.82400000     -0.16380000      4.36700000     11.59500000     19.00200000
      2.51060000     62.76000000      0.20620000      3.82500000     11.16700000     19.84600000
      3.25000000    711.28000000     -0.34180000      3.96200000     12.17100000     17.82600000
      1.06910000     65.68880000      0.34120000      3.00600000     12.28000000     17.51900000
      3.39970000    359.82400000      0.13800000      5.07700000     12.53000000     17.10800000
      3.39970000    359.82400000     -0.26010000      5.18200000     13.11200000     15.84500000
      2.59960000     62.76000000      0.15720000      4.27200000     13.37500000     15.30600000
      3.39970000    359.82400000     -0.11340000      6.44400000     13.31700000     15.36000000
      2.59960000     62.76000000      0.14170000      6.56700000     13.80300000     14.39200000
      3.39970000    359.82400000     -0.19720000      7.58500000     12.92000000     16.07100000
      2.59960000     62.76000000      0.14470000      8.58100000     13.05500000     15.64800000
      3.39970000    359.82400000     -0.23870000      7.48500000     12.35100000     17.31700000
      2.59960000     62.76000000      0.17000000      8.39900000     12.03500000     17.81900000
      3.39970000    359.82400000      0.12430000      6.20200000     12.15400000     17.86400000
      3.39970000    359.82400000      0.59730000      6.30200000     12.82700000     21.78300000
      2.95990000    878.64000000     -0.56790000      6.37200000     14.04300000     21.56400000
      3.25000000    711.28000000     -0.41570000      5.45200000     12.29200000     22.64600000
      1.06910000     65.68880000      0.27190000      5.48400000     11.30100000     22.83600000
      3.39970000    457.72960000      0.03370000      4.41900000     13.09400000     23.30800000
      2.47140000     65.68880000      0.08230000      3.82900000     13.61400000     22.55300000
      3.39970000    457.72960000     -0.18250000      3.49300000     12.20200000     24.11800000
      2.64950000     65.68880000      0.06030000      4.06700000     11.68200000     24.88400000
      2.64950000     65.68880000      0.06030000      2.72400000     12.81100000     24.59200000
      2.64950000     65.68880000      0.06030000      3.02300000     11.47200000     23.45900000
      3.39970000    359.82400000      0.59730000      5.04900000     14.15300000     24.21000000
      2.95990000    878.64000000     -0.56790000      4.58100000     15.30800000     24.27800000
      3.25000000    711.28000000     -0.41570000      6.09000000     13.75000000     24.93300000
      1.06910000     65.68880000      0.27190000      6.34500000     12.77300000     24.92900000
      3.39970000    457.72960000      0.03370000      6.80700000     14.64600000     25.82500000
      2.47140000     65.68880000      0.08230000      6.06400000     14.98600000     26.54700000
      3.39970000    457.72960000     -0.18250000      7.93600000     13.93400000     26.58200000
      2.64950000     65.68880000      0.06030000      8.69200000     13.59600000     25.87400000
      2.64950000     65.68880000      0.06030000      8.38900000     14.62400000     27.29400000
      2.64950000     65.68880000      0.06030000      7.53000000     13.07500000     27.11700000
      3.39970000    359.82400000      0.59730000      7.34200000     15.88500000     25.10300000
      2.95990000    878.64000000     -0.56790000      7.37100000     16.98000000     25.71700000
      3.25000000    711.28000000     -0.41570000      7.75500000     15.74400000     23.84400000
      1.06910000     65.68880000      0.27190000      7.80700000     14.82100000     23.43700000
      3.39970000    457.72960000     -0.00240000      8.33400000     16.86900000     23.09700000
      2.47140000     65.68880000      0.09780000      8.50600000     17.71100000     23.76700000
      3.39970000    457.72960000     -0.03430000      9.65600000     16.46200000     22.48200000
      2.64950000     65.68880000      0.02950000      9.51100000     15.48200000     22.02700000
      2.64950000     65.68880000      0.02950000     10.02900000     17.15900000     21.73100000
      3.39970000    359.82400000      0.01180000     10.73500000     16.30700000     23.49100000
      3.39970000    359.82400000     -0.12560000     10.86600000     15.11200000     24.20200000
      2.59960000     62.76000000      0.13300000     10.18700000     14.29000000     23.97600000
      3.39970000    359.82400000     -0.17040000     11.83600000     14.96000000     25.17800000
      2.59960000     62.76000000      0.14300000     11.95100000     14.01700000     25.71300000
      3.39970000    359.82400000     -0.10720000     12.67200000     16.03500000     25.47300000
      2.59960000     62.76000000      0.12970000     13.44000000     15.93300000     26.24000000
      3.39970000    359.82400000     -0.17040000     12.52600000     17.24300000     24.78700000
      2.59960000     62.76000000      0.14300000     13.17300000     18.08500000     25.03200000
      3.39970000    359.82400000     -0.12560000     11.56500000     17.37300000     23.79900000
      2.59960000     62.76000000      0.13300000     11.46000000     18.31500000     23.26100000
      3.39970000    359.82400000      0.59730000      7.39500000     17.56700000     22.08300000
      2.95990000    878.64000000     -0.56790000      7.85900000     18.27200000     21.19500000
      3.25000000    711.28000000     -0.41570000      6.08200000     17.35300000     22.21600000
      1.06910000     65.68880000      0.27190000      5.73900000     16.66300000     22.86900000
      3.39970000    457.72960000     -0.02520000      5.11800000     18.09600000     21.43500000
      2.47140000     65.68880000      0.06980000      4.32700000     18.38000000     22.12900000
      2.47140000     65.68880000      0.06980000      5.63800000     18.99000000     21.09200000
      3.39970000    359.82400000      0.59730000      4.51300000     17.41300000     20.26900000
      2.95990000    878.64000000     -0.56790000      3.69300000     17.99200000     19.54500000
      3.25000000    711.28000000     -0.41570000      4.90000000     16.16200000     20.05200000
      1.06910000     65.68880000      0.27190000      5.60500000     15.71900000     20.62300000
      3.39970000    457.72960000     -0.02520000      4.32200000     15.41300000     18.99900000
      2.47140000     65.68880000      0.06980000      4.23900000     16.04400000     18.11400000
      2.47140000     65.68880000      0.06980000      4.96000000     14.55700000     18.77600000
      3.39970000    359.82400000      0.59730000      2.95600000     14.91900000     19.37600000
      2.95990000    878.64000000     -0.56790000      2.70900000     14.50100000     20.49000000
      3.25000000    711.28000000     -0.41570000      2.07700000     14.90100000     18.41300000
      1.06910000     65.68880000      0.27190000      2.26300000     15.33100000     17.51800000
      3.39970000    457.72960000     -0.08750000      0.77800000     14.31100000     18.63100000
      2.47140000     65.68880000      0.09690000      0.72000000     13.82900000     19.60700000
      3.39970000    457.72960000      0.29850000     -0.34800000     15.37500000     18.53600000
      2.64950000     65.68880000     -0.02970000     -0.12900000     16.17600000     19.24200000
      3.39970000    457.72960000     -0.31920000     -0.44900000     15.95300000     17.12400000
      2.64950000     65.68880000      0.07910000     -0.66900000     15.15200000     16.41800000
      2.64950000     65.68880000      0.07910000     -1.24700000     16.69500000     17.09100000
      2.64950000     65.68880000      0.07910000      0.49600000     16.42400000     16.85500000
      3.39970000    457.72960000     -0.31920000     -1.67800000     14.76500000     18.94800000
      2.64950000     65.68880000      0.07910000     -1.61100000     14.40600000     19.97500000
      2.64950000     65.68880000      0.07910000     -2.46200000     15.51900000     18.87800000
      2.64950000     65.68880000      0.07910000     -1.91600000     13.93200000     18.28700000
      3.39970000    359.82400000      0.59730000      0.57500000     13.19900000     17.61200000
      2.95990000    878.64000000     -0.56790000      1.18400000     13.20700000     16.53200000
      3.25000000    711.28000000     -0.41570000     -0.24100000     12.21200000     17.99300000
      1.06910000     65.68880000      0.27190000     -0.64000000     12.23500000     18.92100000
      3.39970000    457.72960000     -0.02520000     -0.58200000     11.10000000     17.12500000
      2.47140000     65.68880000      0.06980000     -1.39200000     10.53100000     17.58100000
      2.47140000     65.68880000      0.06980000     -0.91100000     11.49100000     16.16200000
      3.39970000    359.82400000      0.59730000      0.63300000     10.15900000     16.90000000
      2.95990000    878.64000000     -0.56790000      1.63300000     10.19200000     17.63600000
      3.25000000    711.28000000     -0.41570000      0.49700000      9.29400000     15.91100000
      1.06910000     65.68880000      0.27190000     -0.33600000      9.32300000     15.34100000
      3.39970000    457.72960000      0.01430000      1.51700000      8.26900000     15.60900000
      2.47140000     65.68880000      0.10480000      1.89700000      7.81900000     16.52600000
      3.39970000    457.72960000     -0.20410000      0.87200000      7.18200000     14.76500000
      2.64950000     65.68880000      0.07970000     -0.03100000      6.83300000     15.26600000
      2.64950000     65.68880000      0.07970000      0.60900000      7.60600000     13.79600000
      3.39970000    359.82400000      0.71300000      1.78800000      6.00000000     14.54300000
      2.95990000    878.64000000     -0.59310000      3.01700000      6.14900000     14.41200000
      3.25000000    711.28000000     -0.91910000      1.21600000      4.81200000     14.50200000
      1.06910000     65.68880000      0.41960000      1.78100000      3.98800000     14.35600000
      1.06910000     65.68880000      0.41960000      0.21600000      4.73200000     14.61700000
      3.39970000    359.82400000      0.59730000      2.69300000      8.91300000     14.84500000
      2.95990000    878.64000000     -0.56790000      2.49300000      9.56800000     13.81100000
      3.25000000    711.28000000     -0.25480000      3.90100000      8.86200000     15.39200000
      3.39970000    457.72960000      0.01920000      4.33200000      8.27500000     16.66900000
      2.47140000     65.68880000      0.03910000      4.29200000      7.18800000     16.59800000
      2.47140000     65.68880000      0.03910000      3.66600000      8.61100000     17.46400000
      3.39970000    457.72960000      0.01890000      5.70500000      8.78100000     16.83500000
      2.64950000     65.68880000      0.02130000      6.31100000      8.00500000     17.30300000
      2.64950000     65.68880000      0.02130000      5.68000000      9.66000000     17.47900000
      3.39970000    457.72960000     -0.00700000      6.20900000      9.12300000     15.50400000
      2.64950000     65.68880000      0.02530000      6.73500000      8.28500000     15.04600000
      2.64950000     65.68880000      0.02530000      6.88000000      9.97900000     15.57200000
      3.39970000    457.72960000     -0.02660000      4.98600000      9.48600000     14.66900000
      2.47140000     65.68880000      0.06410000      4.81100000     10.56100000     14.70800000
      3.39970000    359.82400000      0.58960000      5.12900000      9.04400000     13.20400000
      2.95990000    878.64000000     -0.57480000      5.64800000      9.80500000     12.31500000
      3.25000000    711.28000000     -0.41570000      4.75500000      7.78600000     12.91900000
      1.06910000     65.68880000      0.27190000      4.44300000      7.17700000     13.66100000
      3.39970000    457.72960000      0.03370000      4.84400000      7.23400000     11.54900000
      2.47140000     65.68880000      0.08230000      5.86000000      7.43500000     11.20800000
      3.39970000    457.72960000     -0.18250000      4.62100000      5.72500000     11.55200000
      2.64950000     65.68880000      0.06030000      3.60500000      5.50800000     11.88200000
      2.64950000     65.68880000      0.06030000      4.76700000      5.33400000     10.54500000
      2.64950000     65.68880000      0.06030000      5.33200000      5.25400000     12.23100000
      3.39970000    359.82400000      0.59730000      3.87300000      7.85900000     10.55900000
      2.95990000    878.64000000     -0.56790000      4.02200000      7.66600000      9.35900000
      3.25000000    711.28000000     -0.41570000      2.84400000      8.52400000     11.07000000
      1.06910000     65.68880000      0.27190000      2.67800000      8.48500000     12.06500000
      3.39970000    457.72960000      0.03370000      1.87700000      9.26200000     10.22500000
      2.47140000     65.68880000      0.08230000      1.87000000      8.79000000      9.24300000
      3.39970000    457.72960000     -0.18250000      0.46700000      9.16600000     10.82600000
      2.64950000     65.68880000      0.06030000      0.45600000      9.64300000     11.80600000
      2.64950000     65.68880000      0.06030000     -0.24300000      9.66900000     10.17000000
      2.64950000     65.68880000      0.06030000      0.18600000      8.11800000     10.92900000
      3.39970000    359.82400000      0.59730000      2.28000000     10.74700000     10.02300000
      2.95990000    878.64000000     -0.56790000      1.72500000     11.43100000      9.17500000
      3.25000000    711.28000000     -0.41570000      3.28400000     11.21100000     10.78300000
      1.06910000     65.68880000      0.27190000      3.71600000     10.60100000     11.46300000
      3.39970000    457.72960000      0.03370000      3.74500000     12.58300000     10.70000000
      2.47140000     65.68880000      0.08230000      2.92800000     13.27800000     10.50500000
      3.39970000    457.72960000     -0.18250000      4.42900000     12.99000000     11.98400000
      2.64950000     65.68880000      0.06030000      5.25500000     12.30900000     12.18800000
      2.64950000     65.68880000      0.06030000      4.81200000     14.00600000     11.88600000
      2.64950000     65.68880000      0.06030000      3.71400000     12.95000000     12.80600000
      3.39970000    359.82400000      0.59730000      4.68400000     12.66400000      9.49400000
      2.95990000    878.64000000     -0.56790000      5.29100000     11.66700000      9.14600000
      3.25000000    711.28000000     -0.41570000      4.76300000     13.84000000      8.86600000
      1.06910000     65.68880000      0.27190000      4.15800000     14.60400000      9.13000000
      3.39970000    457.72960000     -0.02490000      5.69900000     14.04700000      7.76300000
      2.47140000     65.68880000      0.08430000      5.56800000     13.27700000      7.00300000
      3.39970000    457.72960000      0.21170000      5.43000000     15.43000000      7.11800000
      2.47140000     65.68880000      0.03520000      6.01600000     15.50500000      6.20200000
      2.47140000     65.68880000      0.03520000      4.36900000     15.50000000      6.87700000
      3.06650000    880.31360000     -0.65460000      5.78800000     16.49400000      8.00100000
      1.24730000     41.84000000      0.42750000      5.61100000     17.33600000      7.57600000
      3.39970000    359.82400000      0.59730000      7.12700000     13.96700000      8.27000000
      2.95990000    878.64000000     -0.56790000      7.38500000     14.09400000      9.49600000
      3.25000000    711.28000000     -0.34790000      8.06000000     13.71300000      7.36400000
      1.06910000     65.68880000      0.27470000      7.79400000     13.45200000      6.42500000
      3.39970000    457.72960000     -0.26370000      9.53600000     13.78200000      7.69900000
      2.47140000     65.68880000      0.15600000      9.80300000     12.96200000      8.36500000
      3.39970000    457.72960000     -0.00070000     10.36300000     13.67400000      6.44900000
      2.64950000     65.68880000      0.03270000     10.34700000     12.62200000      6.16400000
      2.64950000     65.68880000      0.03270000      9.84600000     14.26300000      5.69100000
      3.39970000    457.72960000      0.03900000     11.80400000     14.14700000      6.56200000
      2.64950000     65.68880000      0.02850000     11.80300000     15.18800000      6.88500000
      2.64950000     65.68880000      0.02850000     12.31200000     13.53600000      7.30800000
      3.39970000    457.72960000      0.04860000     12.52900000     14.03100000      5.23400000
      2.47140000     65.68880000      0.06870000     12.66100000     12.98100000      4.97400000
      2.47140000     65.68880000      0.06870000     11.95400000     14.52800000      4.45300000
      3.25000000    711.28000000     -0.52950000     13.85600000     14.66700000      5.32100000
      1.06910000     65.68880000      0.34560000     14.61600000     14.01500000      5.44900000
      3.39970000    359.82400000      0.80760000     14.11900000     15.96000000      5.37600000
      3.25000000    711.28000000     -0.86270000     13.24100000     16.89200000      5.15200000
      1.06910000     65.68880000      0.44780000     12.29100000     16.64100000      4.91900000
      1.06910000     65.68880000      0.44780000     13.51300000     17.86300000      5.21200000
      3.25000000    711.28000000     -0.86270000     15.38400000     16.38300000      5.53600000
      1.06910000     65.68880000      0.44780000     16.13200000     15.70900000      5.61400000
      1.06910000     65.68880000      0.44780000     15.58100000     17.37300000      5.57800000
      3.39970000    359.82400000      0.73410000      9.80300000     15.08500000      8.38900000
      2.95990000    878.64000000     -0.58940000     10.47400000     15.11900000      9.41000000
      3.25000000    711.28000000     -0.51630000      9.25900000     16.16700000      7.84300000
      1.06910000     65.68880000      0.29360000      8.80500000     16.12400000      6.94200000
      3.39970000    457.72960000      0.03970000      9.51400000     17.47700000      8.42500000
      2.47140000     65.68880000      0.11050000     10.58400000     17.59700000      8.59400000
      3.39970000    457.72960000      0.05600000      9.02100000     18.63400000      7.46800000
      2.64950000     65.68880000     -0.01730000      7.94500000     18.51100000      7.34800000
      2.64950000     65.68880000     -0.01730000      9.22400000     19.57600000      7.97600000
      3.39970000    457.72960000      0.01360000      9.70500000     18.64300000      6.06000000
      2.64950000     65.68880000     -0.04250000      9.21500000     19.51500000      5.62700000
      2.64950000     65.68880000     -0.04250000     10.77700000     18.82700000      6.13000000
      3.39970000    359.82400000      0.80540000      9.45000000     17.40200000      5.15600000
      2.95990000    878.64000000     -0.81880000      8.37200000     16.68800000      5.23500000
      2.95990000    878.64000000     -0.81880000     10.43600000     17.01100000      4.42500000
      3.39970000    359.82400000      0.53660000      9.02200000     17.61600000      9.90000000
      2.95990000    878.64000000     -0.58190000      9.71200000     18.20500000     10.71200000
      3.25000000    711.28000000     -0.41570000      7.84300000     17.10000000     10.22300000
      1.06910000     65.68880000      0.27190000      7.26900000     16.71600000      9.48600000
      3.39970000    457.72960000     -0.00310000      7.30300000     17.12300000     11.58200000
      2.47140000     65.68880000      0.08500000      7.35900000     18.12900000     11.99700000
      3.39970000    457.72960000     -0.00360000      5.83900000     16.69000000     11.54700000
      2.64950000     65.68880000      0.01710000      5.76300000     15.74600000     11.00700000
      2.64950000     65.68880000      0.01710000      5.48700000     16.55300000     12.57000000
      3.39970000    457.72960000     -0.06450000      4.97100000     17.75600000     10.84300000
      2.64950000     65.68880000      0.03520000      4.82700000     18.62100000     11.49100000
      2.64950000     65.68880000      0.03520000      5.52400000     18.05700000      9.95300000
      3.39970000    359.82400000      0.69510000      3.62200000     17.24300000     10.42000000
      2.95990000    878.64000000     -0.60860000      3.40000000     16.05700000     10.22300000
      3.25000000    711.28000000     -0.94070000      2.69600000     18.13900000     10.33300000
      1.06910000     65.68880000      0.42510000      1.76300000     17.87100000     10.05500000
      1.06910000     65.68880000      0.42510000      2.90900000     19.10300000     10.54400000
      3.39970000    359.82400000      0.59730000      8.10800000     16.23900000     12.55700000
      2.95990000    878.64000000     -0.56790000      8.33200000     16.61200000     13.69700000
      3.25000000    711.28000000     -0.41570000      8.55300000     15.09200000     12.06000000
      1.06910000     65.68880000      0.27190000      8.30000000     14.83500000     11.11700000
      3.39970000    457.72960000     -0.00310000      9.38000000     14.16100000     12.83700000
      2.47140000     65.68880000      0.08500000      8.87900000     13.93300000     13.77800000
      3.39970000    457.72960000     -0.00360000      9.61000000     12.87500000     12.09000000
      2.64950000     65.68880000      0.01710000     10.00400000     13.12800000     11.10600000
      2.64950000     65.68880000      0.01710000     10.35300000     12.29900000     12.64100000
      3.39970000    457.72960000     -0.06450000      8.33700000     12.04400000     11.93100000
      2.64950000     65.68880000      0.03520000      7.86600000     11.79300000     12.88100000
      2.64950000     65.68880000      0.03520000      7.66200000     12.66900000     11.34500000
      3.39970000    359.82400000      0.69510000      8.59800000     10.76000000     11.16400000
      2.95990000    878.64000000     -0.60860000      9.45900000      9.94800000     11.55300000
      3.25000000    711.28000000     -0.94070000      7.81100000     10.52200000     10.16100000
      1.06910000     65.68880000      0.42510000      7.93600000      9.68300000      9.61300000
      1.06910000     65.68880000      0.42510000      7.07700000     11.17700000      9.93300000
      3.39970000    359.82400000      0.59730000     10.72300000     14.79000000     13.16300000
      2.95990000    878.64000000     -0.56790000     11.19900000     14.70600000     14.28000000
      3.25000000    711.28000000     -0.41570000     11.28100000     15.47300000     12.19700000
      1.06910000     65.68880000      0.27190000     10.95200000     15.37600000     11.24700000
      3.39970000    457.72960000     -0.05970000     12.49000000     16.27600000     12.43800000
      2.47140000     65.68880000      0.08690000     13.26100000     15.74400000     12.99500000
      3.39970000    457.72960000      0.13030000     13.07100000     16.74700000     11.06500000
      2.64950000     65.68880000      0.01870000     12.24600000     17.10800000     10.45000000
      3.39970000    457.72960000     -0.32040000     14.11600000     17.87300000     11.23800000
      2.64950000     65.68880000      0.08820000     14.94100000     17.51200000     11.85200000
      2.64950000     65.68880000      0.08820000     14.49500000     18.17100000     10.26000000
      2.64950000     65.68880000      0.08820000     13.65000000     18.73000000     11.72400000
      3.39970000    457.72960000     -0.04300000     13.64400000     15.52100000     10.32700000
      2.64950000     65.68880000      0.02360000     14.49200000     15.16200000     10.91000000
      2.64950000     65.68880000      0.02360000     12.86400000     14.76000000     10.31500000
      3.39970000    457.72960000     -0.06600000     14.09200000     15.80700000      8.90800000
      2.64950000     65.68880000      0.01860000     14.87200000     16.56800000      8.91900000
      2.64950000     65.68880000      0.01860000     14.48200000     14.89400000      8.45900000
      2.64950000     65.68880000      0.01860000     13.24400000     16.16500000      8.32400000
      3.39970000    359.82400000      0.59730000     12.32700000     17.42000000     13.39700000
      2.95990000    878.64000000     -0.56790000     13.20300000     17.68200000     14.22100000
      3.25000000    711.28000000     -0.41570000     11.19600000     18.10800000     13.31500000
      1.06910000     65.68880000      0.27190000     10.52300000     17.90000000     12.59100000
      3.39970000    457.72960000      0.03370000     10.90800000     19.23900000     14.24600000
      2.47140000     65.68880000      0.08230000     11.69300000     19.99200000     14.16900000
      3.39970000    457.72960000     -0.18250000      9.57100000     19.89700000     13.93900000
      2.64950000     65.68880000      0.06030000      8.77400000     19.15800000     14.02100000
      2.64950000     65.68880000      0.06030000      9.39100000     20.70500000     14.64900000
      2.64950000     65.68880000      0.06030000      9.58800000     20.30100000     12.92700000
      3.39970000    359.82400000      0.59730000     10.93500000     18.71000000     15.66000000
      2.95990000    878.64000000     -0.56790000     11.51900000     19.37300000     16.52700000
      3.25000000    711.28000000     -0.41570000     10.28600000     17.56700000     15.93500000
      1.06910000     65.68880000      0.27190000      9.63900000     17.21000000     15.24600000
      3.39970000    457.72960000     -0.08750000     10.31400000     16.93800000     17.24700000
      2.47140000     65.68880000      0.09690000     10.16300000     17.69200000     18.01900000
      3.39970000    457.72960000      0.29850000      9.25500000     15.83500000     17.42300000
      2.64950000     65.68880000     -0.02970000      9.45400000     15.05000000     16.69300000
      3.39970000    457.72960000     -0.31920000      9.28100000     15.24300000     18.82300000
      2.64950000     65.68880000      0.07910000      9.08200000     16.02700000     19.55300000
      2.64950000     65.68880000      0.07910000      8.51800000     14.46900000     18.90500000
      2.64950000     65.68880000      0.07910000     10.26200000     14.80800000     19.01600000
      3.39970000    457.72960000     -0.31920000      7.87400000     16.40200000     17.13400000
      2.64950000     65.68880000      0.07910000      7.84100000     16.77500000     16.11000000
      2.64950000     65.68880000      0.07910000      7.12600000     15.61900000     17.25900000
      2.64950000     65.68880000      0.07910000      7.66400000     17.21900000     17.82500000
      3.39970000    359.82400000      0.59730000     11.70200000     16.50300000     17.61400000
      2.95990000    878.64000000     -0.56790000     12.13600000     16.75500000     18.73800000
      3.25000000    711.28000000     -0.41570000     12.46300000     15.94000000     16.68000000
      1.06910000     65.68880000      0.27190000     12.09900000     15.74500000     15.75800000
      3.39970000    457.72960000      0.03370000     13.84200000     15.51800000     16.99200000
      2.47140000     65.68880000      0.08230000     13.77000000     14.84700000     17.84800000
      3.39970000    457.72960000     -0.18250000     14.45500000     14.76000000     15.83300000
      2.64950000     65.68880000      0.06030000     14.54200000     15.42100000     14.97100000
      2.64950000     65.68880000      0.06030000     15.44400000     14.40100000     16.11600000
      2.64950000     65.68880000      0.06030000     13.82000000     13.91200000     15.57700000
      3.39970000    359.82400000      0.59730000     14.75000000     16.65600000     17.36600000
      2.95990000    878.64000000     -0.56790000     15.50900000     16.53300000     18.33200000
      3.25000000    711.28000000     -0.41570000     14.61800000     17.80100000     16.67000000
      1.06910000     65.68880000      0.27190000     14.08900000     17.81200000     15.81000000
      3.39970000    457.72960000      0.01430000     15.36700000     19.00600000     17.04100000
      2.47140000     65.68880000      0.10480000     16.43000000     18.76900000     17.08800000
      3.39970000    457.72960000     -0.20410000     15.16200000     20.12600000     16.02900000
      2.64950000     65.68880000      0.07970000     14.10200000     20.12900000     15.77600000
      2.64950000     65.68880000      0.07970000     15.43700000     21.09200000     16.45400000
      3.39970000    359.82400000      0.71300000     15.94800000     19.91400000     14.78200000
      2.95990000    878.64000000     -0.59310000     17.10300000     19.47200000     14.84700000
      3.25000000    711.28000000     -0.91910000     15.36200000     20.27500000     13.63900000
      1.06910000     65.68880000      0.41960000     15.85100000     20.15300000     12.76400000
      1.06910000     65.68880000      0.41960000     14.43200000     20.66900000     13.65400000
      3.39970000    359.82400000      0.59730000     15.11500000     19.49900000     18.49300000
      2.95990000    878.64000000     -0.56790000     16.04300000     19.80500000     19.24900000
      3.25000000    711.28000000     -0.34790000     13.87100000     19.42000000     18.94500000
      1.06910000     65.68880000      0.27470000     13.10400000     19.24000000     18.31300000
      3.39970000    457.72960000     -0.26370000     13.56300000     19.64800000     20.38100000
      2.47140000     65.68880000      0.15600000     13.94500000     20.61800000     20.69800000
      3.39970000    457.72960000     -0.00070000     12.07800000     19.62600000     20.58900000
      2.64950000     65.68880000      0.03270000     11.70300000     18.64400000     20.30200000
      2.64950000     65.68880000      0.03270000     11.87400000     19.79800000     21.64600000
      3.39970000    457.72960000      0.03900000     11.40200000     20.67000000     19.77900000
      2.64950000     65.68880000      0.02850000     11.62000000     21.65900000     20.18300000
      2.64950000     65.68880000      0.02850000     11.73800000     20.61900000     18.74300000
      3.39970000    457.72960000      0.04860000      9.92500000     20.42200000     19.83700000
      2.47140000     65.68880000      0.06870000      9.65400000     19.53300000     19.26800000
      2.47140000     65.68880000      0.06870000      9.58700000     20.31000000     20.86700000
      3.25000000    711.28000000     -0.52950000      9.25800000     21.57100000     19.25000000
      1.06910000     65.68880000      0.34560000      9.81600000     22.31600000     18.85800000
      3.39970000    359.82400000      0.80760000      7.95800000     21.70000000     19.25200000
      3.25000000    711.28000000     -0.86270000      7.20800000     20.73600000     19.80100000
      1.06910000     65.68880000      0.44780000      7.65200000     19.92400000     20.20600000
      1.06910000     65.68880000      0.44780000      6.20200000     20.82500000     19.80800000
      3.25000000    711.28000000     -0.86270000      7.40300000     22.75100000     18.67200000
      1.06910000     65.68880000      0.44780000      7.98700000     23.44700000     18.23100000
      1.06910000     65.68880000      0.44780000      6.39800000     22.85200000     18.67300000
      3.39970000    359.82400000      0.73410000     14.20000000     18.64500000     21.35700000
      2.95990000    878.64000000     -0.58940000     14.72800000     19.05200000     22.44900000
      3.25000000    711.28000000     -0.41570000     14.18400000     17.35400000     20.98500000
      1.06910000     65.68880000      0.27190000     13.74200000     17.10100000     20.11300000
      3.39970000    457.72960000     -0.08750000     14.75900000     16.27500000     21.82000000
      2.47140000     65.68880000      0.09690000     14.29900000     16.31900000     22.80700000
      3.39970000    457.72960000      0.29850000     14.49200000     14.86300000     21.20700000
      2.64950000     65.68880000     -0.02970000     14.78100000     14.87200000     20.15600000
      3.39970000    457.72960000     -0.31920000     15.29600000     13.80000000     21.94500000
      2.64950000     65.68880000      0.07910000     15.00700000     13.79000000     22.99600000
      2.64950000     65.68880000      0.07910000     15.09800000     12.82300000     21.50500000
      2.64950000     65.68880000      0.07910000     16.35900000     14.02600000     21.86300000
      3.39970000    457.72960000     -0.31920000     12.99300000     14.53000000     21.34700000
      2.64950000     65.68880000      0.07910000     12.40300000     15.27800000     20.81700000
      2.64950000     65.68880000      0.07910000     12.79800000     13.54600000     20.92100000
      2.64950000     65.68880000      0.07910000     12.71700000     14.53100000     22.40100000
      3.39970000    359.82400000      0.59730000     16.23800000     16.49900000     21.95900000
      2.95990000    878.64000000     -0.56790000     16.83700000     16.36000000     23.03000000
      3.25000000    711.28000000     -0.41570000     16.83900000     16.88500000     20.85400000
      1.06910000     65.68880000      0.27190000     16.33100000     16.93400000     19.98200000
      3.39970000    457.72960000     -0.05180000     18.28700000     17.18100000     20.83900000
      2.47140000     65.68880000      0.09220000     18.84700000     16.30000000     21.15300000
      3.39970000    457.72960000     -0.11020000     18.73500000     17.56800000     19.44900000
      2.64950000     65.68880000      0.04570000     18.52200000     16.67700000     18.85900000
      2.64950000     65.68880000      0.04570000     18.09900000     18.38700000     19.11200000
      3.39970000    457.72960000      0.35310000     20.21300000     17.96000000     19.27000000
      2.64950000     65.68880000     -0.03610000     20.44200000     18.78700000     19.94200000
      3.39970000    457.72960000     -0.41210000     21.11400000     16.79700000     19.58200000
      2.64950000     65.68880000      0.10000000     20.88600000     15.97000000     18.91000000
      2.64950000     65.68880000      0.10000000     22.15400000     17.09600000     19.44900000
      2.64950000     65.68880000      0.10000000     20.95600000     16.48100000     20.61300000
      3.39970000    457.72960000     -0.41210000     20.44500000     18.45700000     17.87300000
      2.64950000     65.68880000      0.10000000     19.81800000     19.32900000     17.68800000
      2.64950000     65.68880000      0.10000000     21.49300000     18.73200000     17.75400000
      2.64950000     65.68880000      0.10000000     20.19300000     17.67100000     17.16100000
      3.39970000    359.82400000      0.59730000     18.63600000     18.26300000     21.83600000
      2.95990000    878.64000000     -0.56790000     19.65300000     18.16500000     22.55000000
      3.25000000    711.28000000     -0.41570000     17.90700000     19.36700000     21.76300000
      1.06910000     65.68880000      0.27190000     17.18800000     19.45200000     21.05900000
      3.39970000    457.72960000      0.03370000     18.17700000     20.53700000     22.64100000
      2.47140000     65.68880000      0.08230000     19.19800000     20.87300000     22.46000000
      3.39970000    457.72960000     -0.18250000     17.21900000     21.67600000     22.29400000
      2.64950000     65.68880000      0.06030000     16.19300000     21.35800000     22.47900000
      2.64950000     65.68880000      0.06030000     17.44700000     22.54400000     22.91300000
      2.64950000     65.68880000      0.06030000     17.33300000     21.94000000     21.24300000
      3.39970000    359.82400000      0.59730000     18.08700000     20.16700000     24.11100000
      2.95990000    878.64000000     -0.56790000     18.91400000     20.53800000     24.89000000
      3.25000000    711.28000000     -0.51630000     17.10700000     19.36000000     24.48400000
      1.06910000     65.68880000      0.29360000     16.45500000     19.00700000     23.79800000
      3.39970000    457.72960000      0.03970000     16.91100000     18.97900000     25.89500000
      2.47140000     65.68880000      0.11050000     17.13400000     19.81400000     26.55900000
      3.39970000    457.72960000      0.05600000     15.44100000     18.58200000     26.08400000
      2.64950000     65.68880000     -0.01730000     14.84500000     19.44700000     25.79400000
      2.64950000     65.68880000     -0.01730000     15.24900000     17.76100000     25.39300000
      3.39970000    457.72960000      0.01360000     15.06300000     18.15700000     27.49300000
      2.64950000     65.68880000     -0.04250000     14.07700000     17.69700000     27.42500000
      2.64950000     65.68880000     -0.04250000     15.78200000     17.42300000     27.85800000
      3.39970000    359.82400000      0.80540000     15.00800000     19.32800000     28.45100000
      2.95990000    878.64000000     -0.81880000     14.88900000     20.48000000     27.96100000
      2.95990000    878.64000000     -0.81880000     15.11900000     19.09200000     29.66800000
      3.39970000    359.82400000      0.53660000     17.81100000     17.80300000     26.39700000
      2.95990000    878.64000000     -0.58190000     18.20800000     17.80300000     27.54300000
      3.25000000    711.28000000     -0.41570000     18.03700000     16.79100000     25.54500000
      1.06910000     65.68880000      0.27190000     17.78000000     16.93300000     24.57900000
      3.39970000    457.72960000     -0.00310000     18.64800000     15.50100000     25.92500000
      2.47140000     65.68880000      0.08500000     18.82000000     15.46500000     27.00100000
      3.39970000    457.72960000     -0.00360000     17.69100000     14.34500000     25.53800000
      2.64950000     65.68880000      0.01710000     17.49100000     14.43600000     24.47000000
      2.64950000     65.68880000      0.01710000     18.22000000     13.41100000     25.73000000
      3.39970000    457.72960000     -0.06450000     16.37300000     14.34800000     26.30300000
      2.64950000     65.68880000      0.03520000     16.54400000     14.45000000     27.37500000
      2.64950000     65.68880000      0.03520000     15.82600000     15.21700000     25.93800000
      3.39970000    359.82400000      0.69510000     15.51700000     13.08900000     26.05800000
      2.95990000    878.64000000     -0.60860000     15.87400000     12.21800000     25.25600000
      3.25000000    711.28000000     -0.94070000     14.42400000     12.96400000     26.80400000
      1.06910000     65.68880000      0.42510000     13.82500000     12.15900000     26.68600000
      1.06910000     65.68880000      0.42510000     14.19700000     13.67500000     27.48500000
      3.39970000    359.82400000      0.59730000     20.00200000     15.19400000     25.22900000
      2.95990000    878.64000000     -0.56790000     20.71100000     14.28400000     25.63800000
      3.25000000    711.28000000     -0.41570000     20.33700000     15.93200000     24.17100000
      1.06910000     65.68880000      0.27190000     19.73500000     16.69000000     23.88400000
      3.39970000    457.72960000     -0.02520000     21.54300000     15.68700000     23.40800000
      2.47140000     65.68880000      0.06980000     21.75900000     16.55900000     22.79100000
      2.47140000     65.68880000      0.06980000     22.37200000     15.51400000     24.09500000
      3.39970000    359.82400000      0.59730000     21.38300000     14.46600000     22.50500000
      2.95990000    878.64000000     -0.56790000     20.28000000     13.82700000     22.41900000
      3.25000000    711.28000000     -0.41570000     22.47200000     14.12100000     21.82900000
      1.06910000     65.68880000      0.27190000     23.33000000     14.64900000     21.89700000
      3.39970000    457.72960000     -0.05180000     22.44700000     12.95200000     20.95700000
      2.47140000     65.68880000      0.09220000     21.57500000     12.98900000     20.30400000
      3.39970000    457.72960000     -0.11020000     23.68700000     12.92800000     20.10300000
      2.64950000     65.68880000      0.04570000     24.51800000     13.02900000     20.80200000
      2.64950000     65.68880000      0.04570000     23.73000000     11.94800000     19.62700000
      3.39970000    457.72960000      0.35310000     23.78400000     14.00600000     19.04600000
      2.64950000     65.68880000     -0.03610000     23.65900000     14.98900000     19.50100000
      3.39970000    457.72960000     -0.41210000     25.17300000     13.91700000     18.39200000
      2.64950000     65.68880000      0.10000000     25.29800000     12.93500000     17.93600000
      2.64950000     65.68880000      0.10000000     25.26400000     14.68700000     17.62600000
      2.64950000     65.68880000      0.10000000     25.94200000     14.06600000     19.15000000
      3.39970000    457.72960000     -0.41210000     22.69900000     13.82200000     18.02200000
      2.64950000     65.68880000      0.10000000     21.72500000     13.88400000     18.50800000
      2.64950000     65.68880000      0.10000000     22.77700000     14.60300000     17.26500000
      2.64950000     65.68880000      0.10000000     22.80700000     12.84600000     17.54900000
      3.39970000    359.82400000      0.59730000     22.38900000     11.63200000     21.76600000
      2.95990000    878.64000000     -0.56790000     22.18200000     10.57500000     21.15700000
      3.25000000    711.28000000     -0.51630000     22.49300000     11.68700000     23.10200000
      1.06910000     65.68880000      0.29360000     22.81800000     12.53900000     23.53500000
      3.39970000    457.72960000      0.03810000     22.22000000     10.51400000     23.97200000
      2.47140000     65.68880000      0.08800000     22.92400000      9.71600000     23.73400000
      3.39970000    457.72960000     -0.03030000     22.36900000     10.87400000     25.46500000
      2.64950000     65.68880000     -0.01220000     21.99800000     11.89300000     25.57600000
      2.64950000     65.68880000     -0.01220000     21.75700000     10.19800000     26.06200000
      3.39970000    359.82400000      0.79940000     23.81200000     10.80500000     25.94200000
      2.95990000    878.64000000     -0.80140000     24.70600000     10.35800000     25.15300000
      2.95990000    878.64000000     -0.80140000     24.06900000     11.15900000     27.10800000
      3.39970000    359.82400000      0.53660000     20.85100000      9.91100000     23.73500000
      2.95990000    878.64000000     -0.58190000     20.58500000      8.74800000     24.08000000
      3.25000000    711.28000000     -0.41570000     19.94600000     10.64800000     23.11400000
      1.06910000     65.68880000      0.27190000     20.08400000     11.62600000     22.90400000
      3.39970000    457.72960000      0.03370000     18.63800000     10.05000000     22.81800000
      2.47140000     65.68880000      0.08230000     18.31100000      9.52700000     23.71700000
      3.39970000    457.72960000     -0.18250000     17.63400000     11.15800000     22.50500000
      2.64950000     65.68880000      0.06030000     17.94300000     11.68500000     21.60200000
      2.64950000     65.68880000      0.06030000     16.64700000     10.72200000     22.35000000
      2.64950000     65.68880000      0.06030000     17.59400000     11.85900000     23.33900000
      3.39970000    359.82400000      0.59730000     18.70100000      9.01800000     21.71100000
      2.95990000    878.64000000     -0.56790000     17.77200000      8.25300000     21.53700000
      3.25000000    711.28000000     -0.41570000     19.80000000      9.01500000     20.93200000
      1.06910000     65.68880000      0.27190000     20.51000000      9.70800000     21.12100000
      3.39970000    457.72960000     -0.02750000     20.02600000      8.06300000     19.82200000
      2.47140000     65.68880000      0.11230000     19.26500000      7.28300000     19.84600000
      3.39970000    457.72960000     -0.00500000     19.95000000      8.78400000     18.46300000
      2.64950000     65.68880000      0.03390000     20.57300000      9.67800000     18.44200000
      2.64950000     65.68880000      0.03390000     20.28200000      8.09300000     17.68800000
      3.39970000    359.82400000     -0.14150000     18.52200000      9.23100000     18.07500000
      3.39970000    359.82400000     -0.16380000     17.57600000      8.48900000     17.40800000
      2.51060000     62.76000000      0.20620000     17.85600000      7.47100000     17.13600000
      3.25000000    711.28000000     -0.34180000     16.44900000      9.21700000     17.22500000
      1.06910000     65.68880000      0.34120000     15.64000000      8.93600000     16.68900000
      3.39970000    359.82400000      0.13800000     16.61100000     10.42500000     17.84200000
      3.39970000    359.82400000     -0.26010000     15.74400000     11.48200000     17.93200000
      2.59960000     62.76000000      0.15720000     14.75100000     11.38200000     17.49400000
      3.39970000    359.82400000     -0.11340000     16.18800000     12.60700000     18.57300000
      2.59960000     62.76000000      0.14170000     15.51500000     13.45300000     18.70900000
      3.39970000    359.82400000     -0.19720000     17.48200000     12.69500000     19.05600000
      2.59960000     62.76000000      0.14470000     17.84100000     13.61700000     19.51200000
      3.39970000    359.82400000     -0.23870000     18.35200000     11.63100000     18.97800000
      2.59960000     62.76000000      0.17000000     19.37200000     11.75800000     19.33900000
      3.39970000    359.82400000      0.12430000     17.90700000     10.47100000     18.37100000
      3.39970000    359.82400000      0.59730000     21.42300000      7.50100000     20.07800000
      2.95990000    878.64000000     -0.56790000     22.41600000      7.93900000     19.49100000
      3.25000000    711.28000000     -0.25480000     21.53300000      6.52100000     20.98900000
      3.39970000    457.72960000      0.01920000     20.47200000      5.86900000     21.77400000
      2.47140000     65.68880000      0.03910000     19.85100000      5.28000000     21.09900000
      2.47140000     65.68880000      0.03910000     19.86400000      6.64000000     22.24700000
      3.39970000    457.72960000      0.01890000     21.19400000      5.02800000     22.76700000
      2.64950000     65.68880000      0.02130000     21.02100000      3.98300000     22.51000000
      2.64950000     65.68880000      0.02130000     20.77300000      5.23400000     23.75100000
      3.39970000    457.72960000     -0.00700000     22.66100000      5.36900000     22.72700000
      2.64950000     65.68880000      0.02530000     23.29500000      4.48500000     22.65100000
      2.64950000     65.68880000      0.02530000     22.90200000      5.91100000     23.64200000
      3.39970000    457.72960000     -0.02660000     22.88200000      6.28100000     21.50100000
      2.47140000     65.68880000      0.06410000     23.24900000      7.23700000     21.87600000
      3.39970000    359.82400000      0.58960000     23.88000000      5.71700000     20.47100000
      2.95990000    878.64000000     -0.57480000     25.09600000      5.92400000     20.62100000
      3.25000000    711.28000000     -0.41570000     23.40100000      5.02000000     19.44900000
      1.06910000     65.68880000      0.27190000     22.42200000      4.78200000     19.38300000
      3.39970000    457.72960000     -0.03890000     24.32000000      4.49100000     18.42300000
      2.47140000     65.68880000      0.10070000     25.34400000      4.57900000     18.78500000
      3.39970000    457.72960000      0.36540000     24.01700000      2.98900000     18.14800000
      2.47140000     65.68880000      0.00430000     22.98800000      2.90800000     17.79600000
      3.39970000    457.72960000     -0.24380000     25.00100000      2.37000000     17.05800000
      2.64950000     65.68880000      0.06420000     26.03000000      2.45000000     17.40900000
      2.64950000     65.68880000      0.06420000     24.75300000      1.32100000     16.89800000
      2.64950000     65.68880000      0.06420000     24.89400000      2.91500000     16.12000000
      3.06650000    880.31360000     -0.67610000     24.19300000      2.26100000     19.34600000
      1.24730000     41.84000000      0.41020000     24.00800000      1.33300000     19.18600000
      3.39970000    359.82400000      0.59730000     24.26300000      5.29700000     17.15300000
      2.95990000    878.64000000     -0.56790000     25.27600000      5.55900000     16.48500000
      3.25000000    711.28000000     -0.41570000     23.04100000      5.65000000     16.78100000
      1.06910000     65.68880000      0.27190000     22.26400000      5.35700000     17.35600000
      3.39970000    457.72960000      0.02130000     22.75400000      6.34900000     15.53500000
      2.47140000     65.68880000      0.11240000     23.41400000      6.01200000     14.73600000
      3.39970000    457.72960000     -0.12310000     21.33300000      6.04100000     15.14700000
      2.47140000     65.68880000      0.11120000     20.63800000      6.16700000     15.97700000
      2.47140000     65.68880000      0.11120000     20.99500000      6.63500000     14.29800000
      3.53240000   1181.56160000     -0.31190000     21.19000000      4.23200000     14.61200000
      1.08900000     51.88160000      0.19330000     19.88800000      4.26800000     14.34500000
      3.39970000    359.82400000      0.59730000     23.01600000      7.85400000     15.60200000
      2.95990000    878.64000000     -0.56790000     23.19200000      8.49200000     14.58600000
      3.25000000    711.28000000     -0.41570000     23.19100000      8.39800000     16.80100000
      1.06910000     65.68880000      0.27190000     23.17100000      7.83600000     17.64000000
      3.39970000    457.72960000     -0.02520000     23.42100000      9.85100000     16.93700000
      2.47140000     65.68880000      0.06980000     22.51000000     10.34900000     16.60600000
      2.47140000     65.68880000      0.06980000     23.57800000     10.05000000     17.99700000
      3.39970000    359.82400000      0.59730000     24.57900000     10.39100000     16.16400000
      2.95990000    878.64000000     -0.56790000     24.48300000     11.46000000     15.55500000
      3.25000000    711.28000000     -0.41570000     25.70200000      9.68300000     16.18400000
      1.06910000     65.68880000      0.27190000     25.72900000      8.84200000     16.74200000
      3.39970000    457.72960000      0.03370000     26.91500000     10.07400000     15.45600000
      2.47140000     65.68880000      0.08230000     27.29100000     10.99700000     15.89800000
      3.39970000    457.72960000     -0.18250000     27.98700000      8.98000000     15.61600000
      2.64950000     65.68880000      0.06030000     27.62900000      8.05200000     15.17000000
      2.64950000     65.68880000      0.06030000     28.90400000      9.29300000     15.11600000
      2.64950000     65.68880000      0.06030000     28.18800000      8.82000000     16.67500000
      3.39970000    359.82400000      0.59730000     26.69400000     10.30600000     13.96400000
      2.95990000    878.64000000     -0.56790000     27.40700000     11.10300000     13.32500000
      3.25000000    711.28000000     -0.41570000     25.70200000      9.63000000     13.37700000
      1.06910000     65.68880000      0.27190000     25.18900000      8.90100000     13.85100000
      3.39970000    457.72960000      0.03370000     25.40800000      9.88000000     11.96200000
      2.47140000     65.68880000      0.08230000     26.34700000      9.73600000     11.42800000
      3.39970000    457.72960000     -0.18250000     24.38400000      8.84100000     11.44900000
      2.64950000     65.68880000      0.06030000     23.43500000      8.97800000     11.96800000
      2.64950000     65.68880000      0.06030000     24.23400000      8.97600000     10.37800000
      2.64950000     65.68880000      0.06030000     24.75900000      7.83600000     11.63900000
      3.39970000    359.82400000      0.59730000     24.92000000     11.29900000     11.66000000
      2.95990000    878.64000000     -0.56790000     24.97700000     11.75100000     10.53000000
      3.25000000    711.28000000     -0.41570000     24.44100000     12.00900000     12.67700000
      1.06910000     65.68880000      0.27190000     24.35600000     11.56100000     13.57800000
      3.39970000    457.72960000     -0.02490000     24.04300000     13.41300000     12.55900000
      2.47140000     65.68880000      0.08430000     23.19800000     13.51100000     11.87700000
      3.39970000    457.72960000      0.21170000     23.62500000     13.94200000     13.93600000
      2.47140000     65.68880000      0.03520000     23.13700000     14.91000000     13.82300000
      2.47140000     65.68880000      0.03520000     22.93500000     13.24000000     14.40300000
      3.06650000    880.31360000     -0.65460000     24.78800000     14.08800000     14.76100000
      1.24730000     41.84000000      0.42750000     24.52900000     14.41900000     15.62400000
      3.39970000    359.82400000      0.59730000     25.16400000     14.31200000     12.05500000
      2.95990000    878.64000000     -0.56790000     24.90400000     15.36700000     11.51500000
      3.25000000    711.28000000     -0.41570000     26.41800000     13.85300000     12.19300000
      1.06910000     65.68880000      0.27190000     26.59400000     12.93300000     12.56900000
      3.39970000    457.72960000     -0.02520000     27.54900000     14.66300000     11.80700000
      2.47140000     65.68880000      0.06980000     28.38300000     13.99700000     11.58400000
      2.47140000     65.68880000      0.06980000     27.27800000     15.21800000     10.90900000
      3.39970000    359.82400000      0.59730000     27.97400000     15.64200000     12.88100000
      2.95990000    878.64000000     -0.56790000     28.95300000     16.35000000     12.68000000
      3.25000000    711.28000000     -0.41570000     27.23500000     15.73200000     14.00100000
      1.06910000     65.68880000      0.27190000     26.37900000     15.20400000     14.09200000
      3.39970000    457.72960000     -0.05180000     27.63600000     16.57000000     15.09400000
      2.47140000     65.68880000      0.09220000     28.09000000     17.48600000     14.71600000
      3.39970000    457.72960000     -0.11020000     26.43000000     16.93800000     15.93100000
      2.64950000     65.68880000      0.04570000     26.03100000     15.99100000     16.29400000
      2.64950000     65.68880000      0.04570000     26.79600000     17.52400000     16.77400000
      3.39970000    457.72960000      0.35310000     25.33800000     17.70500000     15.22100000
      2.64950000     65.68880000     -0.03610000     24.97700000     17.14800000     14.35600000
      3.39970000    457.72960000     -0.41210000     24.19300000     17.89100000     16.22200000
      2.64950000     65.68880000      0.10000000     24.55300000     18.44800000     17.08700000
      2.64950000     65.68880000      0.10000000     23.38100000     18.44200000     15.74800000
      2.64950000     65.68880000      0.10000000     23.82900000     16.91500000     16.54400000
      3.39970000    457.72960000     -0.41210000     25.81700000     19.04400000     14.72300000
      2.64950000     65.68880000      0.10000000     26.63900000     18.89900000     14.02300000
      2.64950000     65.68880000      0.10000000     24.99900000     19.55900000     14.22000000
      2.64950000     65.68880000      0.10000000     26.16000000     19.64400000     15.56600000
      3.39970000    359.82400000      0.59730000     28.63900000     15.78500000     15.93900000
      2.95990000    878.64000000     -0.56790000     28.37900000     14.62800000     16.25600000
      3.25000000    711.28000000     -0.25480000     29.79200000     16.39700000     16.29100000
      3.39970000    457.72960000      0.01920000     30.26400000     17.76400000     16.00100000
      2.47140000     65.68880000      0.03910000     29.43200000     18.46200000     16.09300000
      2.47140000     65.68880000      0.03910000     30.66000000     17.80300000     14.98600000
      3.39970000    457.72960000      0.01890000     31.33600000     17.99500000     17.04900000
      2.64950000     65.68880000      0.02130000     30.89200000     18.48000000     17.91800000
      2.64950000     65.68880000      0.02130000     32.11400000     18.63600000     16.63400000
      3.39970000    457.72960000     -0.00700000     31.88500000     16.64300000     17.39700000
      2.64950000     65.68880000      0.02530000     32.17800000     16.59600000     18.44600000
      2.64950000     65.68880000      0.02530000     32.74400000     16.40500000     16.76900000
      3.39970000    457.72960000     -0.02660000     30.74300000     15.64200000     17.12700000
      2.47140000     65.68880000      0.06410000     31.11600000     14.81300000     16.52600000
      3.39970000    359.82400000      0.58960000     30.12700000     15.09400000     18.43100000
      2.95990000    878.64000000     -0.57480000     29.68300000     15.83200000     19.31800000
      3.25000000    711.28000000     -0.41570000     30.11400000     13.77600000     18.54700000
      1.06910000     65.68880000      0.27190000     30.53500000     13.19400000     17.83700000
      3.39970000    457.72960000     -0.05970000     29.46500000     13.12000000     19.68900000
      2.47140000     65.68880000      0.08690000     28.43100000     13.39300000     19.89800000
      3.39970000    457.72960000      0.13030000     29.57300000     11.56800000     19.53400000
      2.64950000     65.68880000      0.01870000     29.08100000     11.26000000     18.61100000
      3.39970000    457.72960000     -0.32040000     31.03100000     11.16500000     19.48700000
      2.64950000     65.68880000      0.08820000     31.52300000     11.47300000     20.41000000
      2.64950000     65.68880000      0.08820000     31.10600000     10.08300000     19.37900000
      2.64950000     65.68880000      0.08820000     31.51500000     11.64900000     18.63900000
      3.39970000    457.72960000     -0.04300000     28.74500000     10.68300000     20.51800000
      2.64950000     65.68880000      0.02360000     29.36000000      9.82700000     20.79800000
      2.64950000     65.68880000      0.02360000     28.52800000     11.27900000     21.40400000
      3.39970000    457.72960000     -0.06600000     27.42800000     10.18700000     19.90000000
      2.64950000     65.68880000      0.01860000     27.64400000      9.59000000     19.01400000
      2.64950000     65.68880000      0.01860000     26.89200000      9.57700000     20.62700000
      2.64950000     65.68880000      0.01860000     26.81300000     11.04200000     19.62000000
      3.39970000    359.82400000      0.59730000     30.08400000     13.53200000     21.00900000
      2.95990000    878.64000000     -0.56790000     29.39000000     13.58800000     22.00000000
      3.25000000    711.28000000     -0.41570000     31.38400000     13.80500000     21.02800000
      1.06910000     65.68880000      0.27190000     31.95600000     13.71300000     20.20000000
      3.39970000    457.72960000      0.03370000     32.03200000     14.15600000     22.27500000
      2.47140000     65.68880000      0.08230000     31.76400000     13.39000000     23.00300000
      3.39970000    457.72960000     -0.18250000     33.54300000     14.16600000     22.11400000
      2.64950000     65.68880000      0.06030000     33.82700000     14.93400000     21.39500000
      2.64950000     65.68880000      0.06030000     34.01000000     14.37900000     23.07600000
      2.64950000     65.68880000      0.06030000     33.87700000     13.19200000     21.75600000
      3.39970000    359.82400000      0.59730000     31.53900000     15.49800000     22.82300000
      2.95990000    878.64000000     -0.56790000     31.62100000     15.73400000     24.01200000
      3.25000000    711.28000000     -0.41570000     31.01400000     16.36200000     21.96700000
      1.06910000     65.68880000      0.27190000     30.87800000     16.08800000     21.00500000
      3.39970000    457.72960000     -0.05180000     30.62200000     17.73800000     22.37000000
      2.47140000     65.68880000      0.09220000     31.08300000     17.99500000     23.32400000
      3.39970000    457.72960000     -0.11020000     31.09400000     18.74800000     21.30700000
      2.64950000     65.68880000      0.04570000     30.52000000     18.47000000     20.42300000
      2.64950000     65.68880000      0.04570000     30.83000000     19.76200000     21.60700000
      3.39970000    457.72960000      0.35310000     32.59500000     18.68400000     20.98300000
      2.64950000     65.68880000     -0.03610000     32.82300000     17.68700000     20.60500000
      3.39970000    457.72960000     -0.41210000     32.98800000     19.72000000     19.94600000
      2.64950000     65.68880000      0.10000000     32.76000000     20.71700000     20.32300000
      2.64950000     65.68880000      0.10000000     34.05600000     19.64400000     19.74300000
      2.64950000     65.68880000      0.10000000     32.43000000     19.54400000     19.02600000
      3.39970000    457.72960000     -0.41210000     33.42700000     18.83000000     22.24400000
      2.64950000     65.68880000      0.10000000     33.18300000     18.02400000     22.93600000
      2.64950000     65.68880000      0.10000000     34.48600000     18.78200000     21.98900000
      2.64950000     65.68880000      0.10000000     33.21000000     19.78900000     22.71400000
      3.39970000    359.82400000      0.59730000     29.11200000     17.87600000     22.52800000
      2.95990000    878.64000000     -0.56790000     28.63700000     18.77100000     23.15100000
      3.25000000    711.28000000     -0.38210000     28.37100000     16.95000000     21.97700000
      1.06910000     65.68880000      0.26810000     28.80300000     16.12400000     21.58800000
      3.39970000    457.72960000     -0.20840000     26.94000000     17.10900000     21.83100000
      2.47140000     65.68880000      0.12720000     26.62000000     18.05700000     22.26300000
      3.39970000    457.72960000     -0.07420000     26.56200000     17.09800000     20.31400000
      2.64950000     65.68880000      0.04970000     27.11800000     16.30400000     19.81600000
      2.64950000     65.68880000      0.04970000     25.49300000     16.91400000     20.20700000
      3.39970000    359.82400000     -0.07960000     26.86300000     18.39200000     19.54700000
      3.39970000    359.82400000     -0.18080000     28.03200000     18.71900000     18.89500000
      2.51060000     62.76000000      0.20430000     28.83600000     17.98400000     18.91300000
      3.25000000    711.28000000     -0.33160000     27.91600000     19.98500000     18.32900000
      1.06910000     65.68880000      0.34130000     28.63900000     20.44600000     17.79500000
      3.39970000    359.82400000      0.12220000     26.67700000     20.50100000     18.60200000
      3.39970000    359.82400000     -0.25940000     26.10600000     21.74900000     18.23700000
      2.59960000     62.76000000      0.15670000     26.70500000     22.42000000     17.62200000
      3.39970000    359.82400000     -0.10200000     24.83000000     22.04000000     18.68000000
      2.59960000     62.76000000      0.14010000     24.36800000     22.99400000     18.42500000
      3.39970000    359.82400000     -0.22870000     24.10400000     21.11500000     19.46600000
      2.59960000     62.76000000      0.15070000     23.09900000     21.34300000     19.82000000
      3.39970000    359.82400000     -0.18370000     24.67400000     19.83900000     19.82300000
      2.59960000     62.76000000      0.14910000     24.10400000     19.18300000     20.48100000
      3.39970000    359.82400000      0.10780000     25.97300000     19.52900000     19.36500000
      3.39970000    359.82400000      0.76580000     26.20700000     16.00400000     22.62600000
      2.95990000    878.64000000     -0.80110000     25.16100000     15.50900000     22.15600000
      2.95990000    878.64000000     -0.80110000     26.65000000     15.61300000     23.70400000
      3.25000000    711.28000000      0.29430000     24.60500000    -26.80700000     -5.37500000
      1.06910000     65.68880000      0.16420000     25.50400000    -26.42300000     -5.12200000
      1.06910000     65.68880000      0.16420000     24.73500000    -27.46900000     -6.12700000
      1.06910000     65.68880000      0.16420000     24.12300000    -27.08700000     -4.53300000
      3.39970000    457.72960000     -0.01000000     23.76500000    -25.69200000     -5.96400000
      1.96000000     65.68880000      0.08950000     23.49000000    -26.00900000     -6.97000000
      1.96000000     65.68880000      0.08950000     22.86800000    -25.62100000     -5.34800000
      3.39970000    359.82400000      0.61630000     24.42000000    -24.32900000     -6.03900000
      2.95990000    878.64000000     -0.57220000     25.26200000    -24.02000000     -5.18200000
      3.25000000    711.28000000     -0.25480000     24.02600000    -23.49300000     -7.03700000
      3.39970000    457.72960000      0.01920000     22.82900000    -23.74400000     -7.85700000
      2.47140000     65.68880000      0.03910000     22.01400000    -24.06000000     -7.20600000
      2.47140000     65.68880000      0.03910000     23.05000000    -24.53700000     -8.57200000
      3.39970000    457.72960000      0.01890000     22.55200000    -22.41600000     -8.53400000
      2.64950000     65.68880000      0.02130000     21.59500000    -22.04000000     -8.17200000
      2.64950000     65.68880000      0.02130000     22.49300000    -22.58400000     -9.60900000
      3.39970000    457.72960000     -0.00700000     23.68300000    -21.46600000     -8.19700000
      2.64950000     65.68880000      0.02530000     23.18900000    -20.51800000     -7.98300000
      2.64950000     65.68880000      0.02530000     24.46500000    -21.30800000     -8.94000000
      3.39970000    457.72960000     -0.02660000     24.28600000    -22.03400000     -6.92200000
      2.47140000     65.68880000      0.06410000     25.34800000    -21.86000000     -6.75200000
      3.39970000    359.82400000      0.58960000     23.48400000    -21.48200000     -5.74200000
      2.95990000    878.64000000     -0.57480000     22.33100000    -21.90000000     -5.51000000
      3.25000000    711.28000000     -0.41570000     24.08100000    -20.57800000     -4.97900000
      1.06910000     65.68880000      0.27190000     25.00800000    -20.24800000     -5.20600000
      3.39970000    457.72960000     -0.02490000     23.44900000    -20.05400000     -3.84100000
      2.47140000     65.68880000      0.08430000     22.44900000    -20.45400000     -3.67200000
      3.39970000    457.72960000      0.21170000     24.36100000    -20.52800000     -2.71400000
      2.47140000     65.68880000      0.03520000     25.40000000    -20.48600000     -3.04000000
      2.47140000     65.68880000      0.03520000     24.22900000    -19.89000000     -1.84000000
      3.06650000    880.31360000     -0.65460000     24.03100000    -21.83700000     -2.38500000
      1.24730000     41.84000000      0.42750000     24.60100000    -22.14200000     -1.67600000
      3.39970000    359.82400000      0.59730000     23.32100000    -18.48100000     -3.84000000
      2.95990000    878.64000000     -0.56790000     23.92000000    -17.80100000     -2.99500000
      3.25000000    711.28000000     -0.25480000     22.54300000    -17.90800000     -4.81000000
      3.39970000    457.72960000      0.01920000     21.45600000    -18.58600000     -5.54600000
      2.47140000     65.68880000      0.03910000     20.74300000    -18.99600000     -4.83100000
      2.47140000     65.68880000      0.03910000     21.87900000    -19.39500000     -6.14100000
      3.39970000    457.72960000      0.01890000     20.86900000    -17.51500000     -6.38500000
      2.64950000     65.68880000      0.02130000     19.80600000    -17.46700000     -6.14900000
      2.64950000     65.68880000      0.02130000     20.99700000    -17.81300000     -7.42600000
      3.39970000    457.72960000     -0.00700000     21.55000000    -16.20400000     -6.11600000
      2.64950000     65.68880000      0.02530000     20.79700000    -15.46300000     -5.84900000
      2.64950000     65.68880000      0.02530000     22.13700000    -15.83800000     -6.95800000
      3.39970000    457.72960000     -0.02660000     22.46500000    -16.47000000     -4.91900000
      2.47140000     65.68880000      0.06410000     23.47300000    -16.08400000     -5.07000000
      3.39970000    359.82400000      0.58960000     21.85600000    -15.83000000     -3.66500000
      2.95990000    878.64000000     -0.57480000     20.88600000    -16.37500000     -3.04300000
      3.25000000    711.28000000     -0.41570000     22.45400000    -14.74600000     -3.24100000
      1.06910000     65.68880000      0.27190000     23.33200000    -14.43700000     -3.63300000
      3.39970000    457.72960000      0.01430000     21.91400000    -14.02000000     -2.08900000
      2.47140000     65.68880000      0.10480000     21.27900000    -14.68900000     -1.50800000
      3.39970000    457.72960000     -0.20410000     23.03600000    -13.49100000     -1.17700000
      2.64950000     65.68880000      0.07970000     23.65300000    -14.35700000     -0.94000000
      2.64950000     65.68880000      0.07970000     23.64600000    -12.73500000     -1.67200000
      3.39970000    359.82400000      0.71300000     22.49300000    -12.90300000      0.13200000
      2.95990000    878.64000000     -0.59310000     21.35400000    -12.61200000      0.24300000
      3.25000000    711.28000000     -0.91910000     23.34000000    -12.66200000      1.07800000
      1.06910000     65.68880000      0.41960000     23.01800000    -12.27500000      1.95300000
      1.06910000     65.68880000      0.41960000     24.32000000    -12.86200000      0.93700000
      3.39970000    359.82400000      0.59730000     21.00800000    -12.95400000     -2.63100000
      2.95990000    878.64000000     -0.56790000     21.40300000    -11.82600000     -2.85300000
      3.25000000    711.28000000     -0.41570000     19.72100000    -13.30700000     -2.77900000
      1.06910000     65.68880000      0.27190000     19.42100000    -14.23800000     -2.52800000
      3.39970000    457.72960000     -0.02750000     18.73000000    -12.37300000     -3.24200000
      2.47140000     65.68880000      0.11230000     19.10200000    -11.85100000     -4.12400000
      3.39970000    457.72960000     -0.00500000     17.42100000    -13.10200000     -3.61600000
      2.64950000     65.68880000      0.03390000     17.11500000    -13.75300000     -2.79700000
      2.64950000     65.68880000      0.03390000     16.61000000    -12.41400000     -3.85500000
      3.39970000    359.82400000     -0.14150000     17.61400000    -14.02600000     -4.87800000
      3.39970000    359.82400000     -0.16380000     17.55900000    -15.35100000     -4.87900000
      2.51060000     62.76000000      0.20620000     17.33600000    -15.83900000     -3.93000000
      3.25000000    711.28000000     -0.34180000     17.80500000    -15.82200000     -6.12200000
      1.06910000     65.68880000      0.34120000     17.84500000    -16.79800000     -6.37700000
      3.39970000    359.82400000      0.13800000     18.02500000    -14.75000000     -6.98500000
      3.39970000    359.82400000     -0.26010000     18.32400000    -14.72700000     -8.31400000
      2.59960000     62.76000000      0.15720000     18.40000000    -15.67600000     -8.84600000
      3.39970000    359.82400000     -0.11340000     18.51500000    -13.47900000     -8.91200000
      2.59960000     62.76000000      0.14170000     18.76900000    -13.40000000     -9.96900000
      3.39970000    359.82400000     -0.19720000     18.37900000    -12.28400000     -8.14200000
      2.59960000     62.76000000      0.14470000     18.50200000    -11.29500000     -8.58200000
      3.39970000    359.82400000     -0.23870000     18.09400000    -12.35900000     -6.85000000
      2.59960000     62.76000000      0.17000000     18.00200000    -11.41700000     -6.31000000
      3.39970000    359.82400000      0.12430000     17.91800000    -13.60900000     -6.24000000
      3.39970000    359.82400000      0.59730000     18.31100000    -11.33400000     -2.17000000
      2.95990000    878.64000000     -0.56790000     17.91700000    -10.24300000     -2.52600000
      3.25000000    711.28000000     -0.51630000     18.51800000    -11.62800000     -0.91600000
      1.06910000     65.68880000      0.29360000     18.62800000    -12.57600000     -0.58700000
      3.39970000    457.72960000      0.03810000     18.45500000    -10.54700000      0.08000000
      2.47140000     65.68880000      0.08800000     17.50700000    -10.01300000      0.01500000
      3.39970000    457.72960000     -0.03030000     18.57000000    -11.17300000      1.47400000
      2.64950000     65.68880000     -0.01220000     19.52800000    -11.67000000      1.62800000
      2.64950000     65.68880000     -0.01220000     18.45900000    -10.36700000      2.20000000
      3.39970000    359.82400000      0.79940000     17.42800000    -12.19100000      1.65800000
      2.95990000    878.64000000     -0.80140000     16.23900000    -11.69900000      1.72000000
      2.95990000    878.64000000     -0.80140000     17.66500000    -13.40200000      1.68000000
      3.39970000    359.82400000      0.53660000     19.44700000     -9.42800000     -0.11000000
      2.95990000    878.64000000     -0.58190000     19.09600000     -8.27400000      0.05300000
      3.25000000    711.28000000     -0.41570000     20.70200000     -9.77700000     -0.33700000
      1.06910000     65.68880000      0.27190000     21.02500000    -10.70400000     -0.10100000
      3.39970000    457.72960000      0.03370000     21.68500000     -8.79100000     -0.75600000
      2.47140000     65.68880000      0.08230000     21.69500000     -8.07200000      0.06300000
      3.39970000    457.72960000     -0.18250000     23.04000000     -9.42200000     -0.85500000
      2.64950000     65.68880000      0.06030000     23.04900000    -10.13800000     -1.67700000
      2.64950000     65.68880000      0.06030000     23.78800000     -8.65100000     -1.03800000
      2.64950000     65.68880000      0.06030000     23.27100000     -9.93700000      0.07800000
      3.39970000    359.82400000      0.59730000     21.31200000     -8.01300000     -2.00400000
      2.95990000    878.64000000     -0.56790000     21.55100000     -6.79200000     -2.05100000
      3.25000000    711.28000000     -0.41570000     20.77500000     -8.67700000     -3.04000000
      1.06910000     65.68880000      0.27190000     20.68900000     -9.68300000     -3.01800000
      3.39970000    457.72960000     -0.08750000     20.38600000     -7.98500000     -4.24000000
      2.47140000     65.68880000      0.09690000     21.18300000     -7.32600000     -4.58500000
      3.39970000    457.72960000      0.29850000     20.03200000     -8.98900000     -5.39100000
      2.64950000     65.68880000     -0.02970000     19.23400000     -9.65300000     -5.05800000
      3.39970000    457.72960000     -0.31920000     19.56700000     -8.21100000     -6.63700000
      2.64950000     65.68880000      0.07910000     20.36500000     -7.54800000     -6.97000000
      2.64950000     65.68880000      0.07910000     19.32200000     -8.91300000     -7.43400000
      2.64950000     65.68880000      0.07910000     18.68400000     -7.62100000     -6.38900000
      3.39970000    457.72960000     -0.31920000     21.19600000     -9.87800000     -5.76300000
      2.64950000     65.68880000      0.07910000     21.50200000    -10.46000000     -4.89300000
      2.64950000     65.68880000      0.07910000     20.89600000    -10.55300000     -6.56400000
      2.64950000     65.68880000      0.07910000     22.03000000     -9.26300000     -6.10000000
      3.39970000    359.82400000      0.59730000     19.19500000     -7.03400000     -3.91500000
      2.95990000    878.64000000     -0.56790000     19.16400000     -5.87200000     -4.40700000
      3.25000000    711.28000000     -0.41570000     18.23900000     -7.50300000     -3.13500000
      1.06910000     65.68880000      0.27190000     18.22300000     -8.47700000     -2.86800000
      3.39970000    457.72960000      0.03370000     17.09300000     -6.61900000     -2.69200000
      2.47140000     65.68880000      0.08230000     16.65300000     -6.21100000     -3.60200000
      3.39970000    457.72960000     -0.18250000     16.05400000     -7.42600000     -1.97800000
      2.64950000     65.68880000      0.06030000     16.47700000     -7.83400000     -1.06000000
      2.64950000     65.68880000      0.06030000     15.20300000     -6.79000000     -1.73400000
      2.64950000     65.68880000      0.06030000     15.72300000     -8.24300000     -2.62000000
      3.39970000    359.82400000      0.59730000     17.51600000     -5.46700000     -1.83200000
      2.95990000    878.64000000     -0.56790000     16.95800000     -4.37600000     -2.00300000
      3.25000000    711.28000000     -0.41570000     18.57100000     -5.64200000     -1.05400000
      1.06910000     65.68880000      0.27190000     18.93300000     -6.56300000     -0.85100000
      3.39970000    457.72960000     -0.00310000     19.19400000     -4.44000000     -0.33000000
      2.47140000     65.68880000      0.08500000     18.44900000     -3.94700000      0.29400000
      3.39970000    457.72960000     -0.00360000     20.35100000     -4.92400000      0.57300000
      2.64950000     65.68880000      0.01710000     19.90500000     -5.62200000      1.28200000
      2.64950000     65.68880000      0.01710000     21.03700000     -5.46100000     -0.08200000
      3.39970000    457.72960000     -0.06450000     21.12100000     -3.83800000      1.34000000
      2.64950000     65.68880000      0.03520000     21.72400000     -4.43700000      2.02200000
      2.64950000     65.68880000      0.03520000     21.77500000     -3.22800000      0.71700000
      3.39970000    359.82400000      0.69510000     20.24500000     -2.92900000      2.14700000
      2.95990000    878.64000000     -0.60860000     19.22300000     -3.33300000      2.68700000
      3.25000000    711.28000000     -0.94070000     20.54600000     -1.64900000      2.10500000
      1.06910000     65.68880000      0.42510000     19.99200000     -0.98600000      2.62800000
      1.06910000     65.68880000      0.42510000     21.32900000     -1.33600000      1.55000000
      3.39970000    359.82400000      0.59730000     19.61400000     -3.37400000     -1.35000000
      2.95990000    878.64000000     -0.56790000     19.32900000     -2.18400000     -1.22200000
      3.25000000    711.28000000     -0.41570000     20.36500000     -3.82500000     -2.36600000
      1.06910000     65.68880000      0.27190000     20.62000000     -4.79800000     -2.46000000
      3.39970000    457.72960000      0.02130000     20.82700000     -2.89200000     -3.37800000
      2.47140000     65.68880000      0.11240000     21.37600000     -2.08700000     -2.88900000
      3.39970000    457.72960000     -0.12310000     21.71100000     -3.52900000     -4.37200000
      2.47140000     65.68880000      0.11120000     21.23000000     -4.39700000     -4.82300000
      2.47140000     65.68880000      0.11120000     21.99200000     -2.82300000     -5.15400000
      3.53240000   1181.56160000     -0.31190000     23.22700000     -4.11600000     -3.67400000
      1.08900000     51.88160000      0.19330000     23.72600000     -4.59600000     -4.80900000
      3.39970000    359.82400000      0.59730000     19.73600000     -2.25200000     -4.19200000
      2.95990000    878.64000000     -0.56790000     19.79300000     -1.02100000     -4.44500000
      3.25000000    711.28000000     -0.51630000     18.74500000     -3.02800000     -4.59900000
      1.06910000     65.68880000      0.29360000     18.76700000     -3.99600000     -4.31000000
      3.39970000    457.72960000      0.03970000     17.67300000     -2.59600000     -5.45200000
      2.47140000     65.68880000      0.11050000     18.08300000     -1.97800000     -6.25100000
      3.39970000    457.72960000      0.05600000     16.91700000     -3.78700000     -6.08700000
      2.64950000     65.68880000     -0.01730000     16.73500000     -4.49200000     -5.27600000
      2.64950000     65.68880000     -0.01730000     15.96700000     -3.38400000     -6.43800000
      3.39970000    457.72960000      0.01360000     17.63300000     -4.51800000     -7.25700000
      2.64950000     65.68880000     -0.04250000     18.55500000     -4.83000000     -6.76600000
      2.64950000     65.68880000     -0.04250000     17.08200000     -5.39800000     -7.58800000
      3.39970000    359.82400000      0.80540000     17.96900000     -3.65000000     -8.45900000
      2.95990000    878.64000000     -0.81880000     17.39100000     -2.57000000     -8.59500000
      2.95990000    878.64000000     -0.81880000     18.71100000     -4.14700000     -9.31700000
      3.39970000    359.82400000      0.53660000     16.59400000     -1.71100000     -4.79300000
      2.95990000    878.64000000     -0.58190000     16.17900000     -0.74200000     -5.39300000
      3.25000000    711.28000000     -0.41570000     16.21900000     -2.01300000     -3.56300000
      1.06910000     65.68880000      0.27190000     16.72900000     -2.75400000     -3.10400000
      3.39970000    457.72960000     -0.02490000     15.12600000     -1.39200000     -2.85200000
      2.47140000     65.68880000      0.08430000     14.80100000     -0.48300000     -3.35900000
      3.39970000    457.72960000      0.21170000     13.92700000     -2.39600000     -2.80900000
      2.47140000     65.68880000      0.03520000     13.07900000     -1.84900000     -2.39700000
      2.47140000     65.68880000      0.03520000     13.71500000     -2.66900000     -3.84300000
      3.06650000    880.31360000     -0.65460000     14.15400000     -3.60900000     -2.02100000
      1.24730000     41.84000000      0.42750000     13.37000000     -4.16200000     -2.05200000
      3.39970000    359.82400000      0.59730000     15.38400000     -0.95300000     -1.45700000
      2.95990000    878.64000000     -0.56790000     14.45400000     -0.58100000     -0.75600000
      3.25000000    711.28000000     -0.41570000     16.56500000     -1.17900000     -0.96200000
      1.06910000     65.68880000      0.27190000     17.32700000     -1.46700000     -1.55900000
      3.39970000    457.72960000     -0.02520000     16.81800000     -1.02800000      0.43100000
      2.47140000     65.68880000      0.06980000     17.89100000     -1.10800000      0.60300000
      2.47140000     65.68880000      0.06980000     16.47200000     -0.04300000      0.74600000
      3.39970000    359.82400000      0.59730000     16.11100000     -2.08000000      1.24700000
      2.95990000    878.64000000     -0.56790000     15.97600000     -1.85700000      2.44200000
      3.25000000    711.28000000     -0.41570000     15.83500000     -3.28200000      0.70900000
      1.06910000     65.68880000      0.27190000     15.92500000     -3.37700000     -0.29200000
      3.39970000    457.72960000     -0.02520000     15.44300000     -4.37400000      1.43000000
      2.47140000     65.68880000      0.06980000     15.62900000     -5.28500000      0.86100000
      2.47140000     65.68880000      0.06980000     15.99100000     -4.41700000      2.37200000
      3.39970000    359.82400000      0.59730000     13.90000000     -4.26800000      1.73800000
      2.95990000    878.64000000     -0.56790000     13.40800000     -4.81200000      2.70200000
      3.25000000    711.28000000     -0.41570000     13.18000000     -3.60900000      0.83400000
      1.06910000     65.68880000      0.27190000     13.65000000     -3.20900000      0.03500000
      3.39970000    457.72960000      0.01430000     11.69500000     -3.36200000      0.99100000
      2.47140000     65.68880000      0.10480000     11.39900000     -3.66700000      1.99500000
      3.39970000    457.72960000     -0.20410000     11.31800000     -1.95700000      0.79800000
      2.64950000     65.68880000      0.07970000     11.82600000     -1.36900000      1.56200000
      2.64950000     65.68880000      0.07970000     11.60700000     -1.59700000     -0.18900000
      3.39970000    359.82400000      0.71300000      9.79500000     -1.77100000      0.96400000
      2.95990000    878.64000000     -0.59310000      9.07400000     -2.72100000      1.33800000
      3.25000000    711.28000000     -0.91910000      9.32700000     -0.62000000      0.65400000
      1.06910000     65.68880000      0.41960000      8.33700000     -0.44000000      0.74200000
      1.06910000     65.68880000      0.41960000      9.95000000      0.10300000      0.32300000
      3.39970000    359.82400000      0.59730000     10.96900000     -4.28700000     -0.00400000
      2.95990000    878.64000000     -0.56790000     10.85900000     -3.95200000     -1.20400000
      3.25000000    711.28000000     -0.41570000     10.56100000     -5.44600000      0.46600000
      1.06910000     65.68880000      0.27190000     10.72300000     -5.68300000      1.43400000
      3.39970000    457.72960000     -0.02750000      9.97100000     -6.47200000     -0.41700000
      2.47140000     65.68880000      0.11230000     10.61900000     -6.62400000     -1.28000000
      3.39970000    457.72960000     -0.00500000      9.80900000     -7.80800000      0.31400000
      2.64950000     65.68880000      0.03390000      9.39900000     -7.63200000      1.30800000
      2.64950000     65.68880000      0.03390000      9.19400000     -8.54200000     -0.20700000
      3.39970000    359.82400000     -0.14150000     11.17600000     -8.44800000      0.51400000
      3.39970000    359.82400000     -0.16380000     11.89200000     -8.44000000      1.65700000
      2.51060000     62.76000000      0.20620000     11.46200000     -7.93500000      2.52200000
      3.25000000    711.28000000     -0.34180000     13.10800000     -9.13200000      1.45000000
      1.06910000     65.68880000      0.34120000     13.61800000     -9.59200000      2.19000000
      3.39970000    359.82400000      0.13800000     13.23300000     -9.40700000      0.08800000
      3.39970000    359.82400000     -0.26010000     14.20500000    -10.17600000     -0.55700000
      2.59960000     62.76000000      0.15720000     15.08400000    -10.48300000      0.01000000
      3.39970000    359.82400000     -0.11340000     13.99000000    -10.49800000     -1.87400000
      2.59960000     62.76000000      0.14170000     14.75800000    -11.00400000     -2.45900000
      3.39970000    359.82400000     -0.19720000     12.74400000    -10.17000000     -2.50000000
      2.59960000     62.76000000      0.14470000     12.55200000    -10.41300000     -3.54500000
      3.39970000    359.82400000     -0.23870000     11.78800000     -9.55900000     -1.81800000
      2.59960000     62.76000000      0.17000000     10.83100000     -9.43400000     -2.32600000
      3.39970000    359.82400000      0.12430000     12.01300000     -9.14000000     -0.50000000
      3.39970000    359.82400000      0.59730000      8.63800000     -5.98800000     -1.02700000
      2.95990000    878.64000000     -0.56790000      8.16800000     -6.55500000     -1.96600000
      3.25000000    711.28000000     -0.41570000      8.01800000     -5.05400000     -0.38700000
      1.06910000     65.68880000      0.27190000      8.41100000     -4.79600000      0.50700000
      3.39970000    457.72960000      0.03370000      6.70700000     -4.43700000     -0.79500000
      2.47140000     65.68880000      0.08230000      6.26600000     -5.12400000     -1.51700000
      3.39970000    457.72960000     -0.18250000      5.77300000     -4.32200000      0.39800000
      2.64950000     65.68880000      0.06030000      6.19600000     -3.63000000      1.12600000
      2.64950000     65.68880000      0.06030000      4.80300000     -3.95100000      0.06600000
      2.64950000     65.68880000      0.06030000      5.64800000     -5.30200000      0.85800000
      3.39970000    359.82400000      0.59730000      6.88900000     -3.13800000     -1.50600000
      2.95990000    878.64000000     -0.56790000      5.93400000     -2.44000000     -1.76400000
      3.25000000    711.28000000     -0.41570000      8.11800000     -2.82000000     -1.96000000
      1.06910000     65.68880000      0.27190000      8.90700000     -3.42200000     -1.77100000
      3.39970000    457.72960000      0.03370000      8.36500000     -1.53700000     -2.67000000
      2.47140000     65.68880000      0.08230000      8.15800000     -0.74000000     -1.95500000
      3.39970000    457.72960000     -0.18250000      9.83400000     -1.44900000     -3.08800000
      2.64950000     65.68880000      0.06030000     10.05400000     -2.23500000     -3.81100000
      2.64950000     65.68880000      0.06030000     10.02600000     -0.47600000     -3.54000000
      2.64950000     65.68880000      0.06030000     10.47000000     -1.57300000     -2.21100000
      3.39970000    359.82400000      0.59730000      7.46700000     -1.31800000     -3.87200000
      2.95990000    878.64000000     -0.56790000      7.37200000     -2.12600000     -4.79200000
      3.25000000    711.28000000     -0.41570000      6.77500000     -0.20100000     -3.83900000
      1.06910000     65.68880000      0.27190000      6.77800000      0.38200000     -3.01400000
      3.39970000    457.72960000      0.01430000      5.96500000      0.21000000     -4.96700000
      2.47140000     65.68880000      0.10480000      6.45200000     -0.11000000     -5.88800000
      3.39970000    457.72960000     -0.20410000      4.53500000     -0.40600000     -4.92000000
      2.64950000     65.68880000      0.07970000      4.52100000     -1.49200000     -4.83300000
      2.64950000     65.68880000      0.07970000      4.10200000      0.03600000     -4.02300000
      3.39970000    359.82400000      0.71300000      3.69000000     -0.00400000     -6.11500000
      2.95990000    878.64000000     -0.59310000      4.16800000      0.62500000     -7.10600000
      3.25000000    711.28000000     -0.91910000      2.48300000     -0.47000000     -6.11000000
      1.06910000     65.68880000      0.41960000      1.85600000     -0.24800000     -6.87000000
      1.06910000     65.68880000      0.41960000      2.17300000     -1.05300000     -5.34600000
      3.39970000    359.82400000      0.59730000      5.92100000      1.67800000     -4.90000000
      2.95990000    878.64000000     -0.56790000      4.91500000      2.31200000     -4.55000000
      3.25000000    711.28000000     -0.41570000      6.96600000      2.29100000     -5.39900000
      1.06910000     65.68880000      0.27190000      7.70800000      1.78100000     -5.85700000
      3.39970000    457.72960000     -0.03890000      7.10800000      3.70700000     -5.24800000
      2.47140000     65.68880000      0.10070000      6.52900000      4.11800000     -4.42100000
      3.39970000    457.72960000      0.36540000      8.55300000      4.04700000     -5.03600000
      2.47140000     65.68880000      0.00430000      8.66600000      5.12900000     -4.96300000
      3.39970000    457.72960000     -0.24380000      9.02400000      3.42000000     -3.79100000
      2.64950000     65.68880000      0.06420000      8.91100000      2.33800000     -3.86300000
      2.64950000     65.68880000      0.06420000     10.07400000      3.66600000     -3.63500000
      2.64950000     65.68880000      0.06420000      8.43600000      3.79100000     -2.95200000
      3.06650000    880.31360000     -0.67610000      9.37200000      3.67100000     -6.14900000
      1.24730000     41.84000000      0.41020000     10.28500000      3.90700000     -5.96900000
      3.39970000    359.82400000      0.59730000      6.55000000      4.55000000     -6.46200000
      2.95990000    878.64000000     -0.56790000      6.51600000      5.75200000     -6.40000000
      3.25000000    711.28000000     -0.41570000      6.20600000      3.89700000     -7.56800000
      1.06910000     65.68880000      0.27190000      6.22000000      2.88700000     -7.57100000
      3.39970000    457.72960000     -0.02520000      5.80000000      4.59700000     -8.80600000
      2.47140000     65.68880000      0.06980000      4.99900000      4.00900000     -9.25500000
      2.47140000     65.68880000      0.06980000      5.41200000      5.57100000     -8.50700000
      3.39970000    359.82400000      0.59730000      6.90300000      4.79800000     -9.83400000
      2.95990000    878.64000000     -0.56790000      6.74700000      5.59600000    -10.74300000
      3.25000000    711.28000000     -0.41570000      8.03900000      4.13000000     -9.67800000
      1.06910000     65.68880000      0.27190000      8.14100000      3.52200000     -8.87800000
      3.39970000    457.72960000      0.01430000      9.13800000      4.24400000    -10.58800000
      2.47140000     65.68880000      0.10480000      9.11400000      5.22300000    -11.06600000
      3.39970000    457.72960000     -0.20410000     10.47000000      4.08800000     -9.86500000
      2.64950000     65.68880000      0.07970000     11.30400000      4.19800000    -10.55800000
      2.64950000     65.68880000      0.07970000     10.49900000      4.89400000     -9.13200000
      3.39970000    359.82400000      0.71300000     10.61300000      2.79200000     -9.15200000
      2.95990000    878.64000000     -0.59310000      9.72000000      1.91600000     -9.15800000
      3.25000000    711.28000000     -0.91910000     11.75600000      2.59600000     -8.57700000
      1.06910000     65.68880000      0.41960000     11.92400000      1.73700000     -8.07400000
      1.06910000     65.68880000      0.41960000     12.47500000      3.30300000     -8.63400000
      3.39970000    359.82400000      0.59730000      9.09200000      3.19700000    -11.69700000
      2.95990000    878.64000000     -0.56790000     10.11900000      2.93900000    -12.32600000
      3.25000000    711.28000000     -0.41570000      7.96400000      2.51500000    -11.84800000
      1.06910000     65.68880000      0.27190000      7.16800000      2.66200000    -11.24400000
      3.39970000    457.72960000     -0.02520000      7.85100000      1.52000000    -12.91200000
      2.47140000     65.68880000      0.06980000      6.79500000      1.38400000    -13.14400000
      2.47140000     65.68880000      0.06980000      8.37000000      1.89900000    -13.79300000
      3.39970000    359.82400000      0.59730000      8.45300000      0.16900000    -12.52300000
      2.95990000    878.64000000     -0.56790000      8.44000000     -0.79700000    -13.36800000
      3.25000000    711.28000000     -0.34790000      8.93000000      0.04000000    -11.29700000
      1.06910000     65.68880000      0.27470000      8.97200000      0.85000000    -10.69400000
      3.39970000    457.72960000     -0.24000000      9.47500000     -1.22700000    -10.79800000
      2.47140000     65.68880000      0.14260000      9.22200000     -2.02000000    -11.50200000
      3.39970000    457.72960000     -0.00940000     11.01700000     -1.18500000    -10.63200000
      2.64950000     65.68880000      0.03620000     11.23700000     -0.51900000     -9.79800000
      2.64950000     65.68880000      0.03620000     11.34600000     -2.19500000    -10.38700000
      3.39970000    457.72960000      0.01870000     11.76600000     -0.69000000    -11.90300000
      2.64950000     65.68880000      0.01030000     11.67000000     -1.42100000    -12.70600000
      2.64950000     65.68880000      0.01030000     11.35900000      0.26600000    -12.23200000
      3.39970000    457.72960000     -0.04790000     13.24500000     -0.51900000    -11.54300000
      2.64950000     65.68880000      0.06210000     13.28300000     -0.26800000    -10.48300000
      2.64950000     65.68880000      0.06210000     13.72100000     -1.48600000    -11.70400000
      3.39970000    457.72960000     -0.01430000     13.96000000      0.51900000    -12.32200000
      1.96000000     65.68880000      0.11350000     14.70600000      0.01500000    -12.93600000
      1.96000000     65.68880000      0.11350000     13.23000000      1.00900000    -12.96700000
      3.25000000    711.28000000     -0.38540000     14.63400000      1.54600000    -11.45900000
      1.06910000     65.68880000      0.34000000     15.31100000      1.09200000    -10.86200000
      1.06910000     65.68880000      0.34000000     15.10200000      2.22300000    -12.04400000
      1.06910000     65.68880000      0.34000000     13.94300000      2.01400000    -10.89000000
      3.39970000    359.82400000      0.73410000      8.82600000     -1.60100000     -9.49800000
      2.95990000    878.64000000     -0.58940000      8.24100000     -0.76000000     -8.75800000
      3.25000000    711.28000000     -0.41570000      8.94000000     -2.90100000     -9.15600000
      1.06910000     65.68880000      0.27190000      9.55500000     -3.53100000     -9.65100000
      3.39970000    457.72960000     -0.00140000      8.09300000     -3.45200000     -8.07500000
      2.47140000     65.68880000      0.08760000      7.85100000     -2.67000000     -7.35500000
      3.39970000    457.72960000     -0.01520000      6.75400000     -4.01400000     -8.67500000
      2.64950000     65.68880000      0.02950000      6.97000000     -4.88400000     -9.29600000
      2.64950000     65.68880000      0.02950000      6.16400000     -4.32200000     -7.81200000
      3.39970000    359.82400000     -0.00110000      5.97100000     -2.99400000     -9.48700000
      3.39970000    359.82400000     -0.19060000      6.19700000     -2.82400000    -10.87200000
      2.59960000     62.76000000      0.16990000      6.92700000     -3.46700000    -11.36300000
      3.39970000    359.82400000     -0.23410000      5.51500000     -1.86700000    -11.60400000
      2.59960000     62.76000000      0.16560000      5.72300000     -1.73400000    -12.66600000
      3.39970000    359.82400000      0.32260000      4.50800000     -1.15700000    -11.01100000
      3.06650000    880.31360000     -0.55790000      3.90000000     -0.24500000    -11.76300000
      1.24730000     41.84000000      0.39920000      4.25400000     -0.19700000    -12.65400000
      3.39970000    359.82400000     -0.23410000      4.20800000     -1.31100000     -9.66000000
      2.59960000     62.76000000      0.16560000      3.40900000     -0.73400000     -9.19500000
      3.39970000    359.82400000     -0.19060000      4.95500000     -2.23000000     -8.89100000
      2.59960000     62.76000000      0.16990000      4.74400000     -2.34900000     -7.82800000
      3.39970000    359.82400000      0.59730000      8.72900000     -4.52100000     -7.24300000
      2.95990000    878.64000000     -0.56790000      9.40500000     -5.38600000     -7.75100000
      3.25000000    711.28000000     -0.41570000      8.54200000     -4.39400000     -5.92200000
      1.06910000     65.68880000      0.27190000      8.07000000     -3.55900000     -5.60600000
      3.39970000    457.72960000     -0.02520000      8.96500000     -5.35800000     -4.93200000
      2.47140000     65.68880000      0.06980000      8.38800000     -5.21200000     -4.01900000
      2.47140000     65.68880000      0.06980000      8.79200000     -6.36400000     -5.31300000
      3.39970000    359.82400000      0.59730000     10.45600000     -5.19500000     -4.61200000
      2.95990000    878.64000000     -0.56790000     11.10600000     -4.22100000     -5.03900000
      3.25000000    711.28000000     -0.41570000     10.97400000     -6.18900000     -3.94000000
      1.06910000     65.68880000      0.27190000     10.48100000     -7.06400000     -3.83200000
      3.39970000    457.72960000     -0.02520000     12.30200000     -6.05400000     -3.31900000
      2.47140000     65.68880000      0.06980000     12.33000000     -5.09900000     -2.79500000
      2.47140000     65.68880000      0.06980000     12.41900000     -6.86500000     -2.60100000
      3.39970000    359.82400000      0.59730000     13.43400000     -6.10500000     -4.30100000
      2.95990000    878.64000000     -0.56790000     14.46700000     -5.49400000     -4.11600000
      3.25000000    711.28000000     -0.41570000     13.18000000     -6.80400000     -5.38300000
      1.06910000     65.68880000      0.27190000     12.31100000     -7.31600000     -5.43800000
      3.39970000    457.72960000     -0.05180000     14.11300000     -6.93500000     -6.45700000
      2.47140000     65.68880000      0.09220000     15.10700000     -6.62200000     -6.13600000
      3.39970000    457.72960000     -0.11020000     14.18000000     -8.39800000     -6.89500000
      2.64950000     65.68880000      0.04570000     13.18000000     -8.65900000     -7.24100000
      2.64950000     65.68880000      0.04570000     14.87900000     -8.45400000     -7.72900000
      3.39970000    457.72960000      0.35310000     14.60800000     -9.36600000     -5.81200000
      2.64950000     65.68880000     -0.03610000     14.01100000     -9.17400000     -4.92100000
      3.39970000    457.72960000     -0.41210000     14.41700000    -10.79900000     -6.24600000
      2.64950000     65.68880000      0.10000000     15.01400000    -10.99200000     -7.13700000
      2.64950000     65.68880000      0.10000000     14.73400000    -11.46700000     -5.44500000
      2.64950000     65.68880000      0.10000000     13.36500000    -10.97400000     -6.47000000
      3.39970000    457.72960000     -0.41210000     16.08000000     -9.18500000     -5.43700000
      2.64950000     65.68880000      0.10000000     16.24000000     -8.17100000     -5.07200000
      2.64950000     65.68880000      0.10000000     16.34700000     -9.89800000     -4.65700000
      2.64950000     65.68880000      0.10000000     16.70300000     -9.35700000     -6.31500000
      3.39970000    359.82400000      0.59730000     13.77500000     -6.00900000     -7.67500000
      2.95990000    878.64000000     -0.56790000     14.47700000     -6.05800000     -8.71200000
      3.25000000    711.28000000     -0.41570000     12.80300000     -5.08500000     -7.48700000
      1.06910000     65.68880000      0.27190000     12.20200000     -5.17700000     -6.68100000
      3.39970000    457.72960000     -0.00310000     12.51100000     -4.00300000     -8.46400000
      2.47140000     65.68880000      0.08500000     11.57300000     -3.51200000     -8.20500000
      3.39970000    457.72960000     -0.00360000     13.60200000     -2.98500000     -8.44900000
      2.64950000     65.68880000      0.01710000     14.56100000     -3.49100000     -8.56400000
      2.64950000     65.68880000      0.01710000     13.45400000     -2.29400000     -9.27900000
      3.39970000    457.72960000     -0.06450000     13.59000000     -2.18900000     -7.09900000
      2.64950000     65.68880000      0.03520000     13.48900000     -2.97200000     -6.34700000
      2.64950000     65.68880000      0.03520000     14.50600000     -1.62600000     -6.91600000
      3.39970000    359.82400000      0.69510000     12.42100000     -1.25500000     -6.97900000
      2.95990000    878.64000000     -0.60860000     11.33900000     -1.61400000     -6.39200000
      3.25000000    711.28000000     -0.94070000     12.53600000     -0.19000000     -7.58600000
      1.06910000     65.68880000      0.42510000     11.79000000      0.49000000     -7.55300000
      1.06910000     65.68880000      0.42510000     13.37600000     -0.00200000     -8.11400000
      3.39970000    359.82400000      0.59730000     12.27300000     -4.59200000     -9.88700000
      2.95990000    878.64000000     -0.56790000     12.87100000     -4.14600000    -10.85400000
      3.25000000    711.28000000     -0.41570000     11.33700000     -5.53100000     -9.96700000
      1.06910000     65.68880000      0.27190000     10.82500000     -5.77800000     -9.13200000
      3.39970000    457.72960000     -0.00240000     10.98000000     -6.18800000    -11.21500000
      2.47140000     65.68880000      0.09780000     11.89500000     -6.49500000    -11.72100000
      3.39970000    457.72960000     -0.03430000     10.09400000     -7.42900000    -11.00400000
      2.64950000     65.68880000      0.02950000      9.55100000     -7.26800000    -10.07300000
      2.64950000     65.68880000      0.02950000      9.38300000     -7.56400000    -11.82000000
      3.39970000    359.82400000      0.01180000     10.82600000     -8.72700000    -10.85500000
      3.39970000    359.82400000     -0.12560000     11.33300000     -9.37600000    -11.96400000
      2.59960000     62.76000000      0.13300000     11.27000000     -8.89800000    -12.94200000
      3.39970000    359.82400000     -0.17040000     11.93400000    -10.66000000    -11.83700000
      2.59960000     62.76000000      0.14300000     12.31300000    -11.18200000    -12.71600000
      3.39970000    359.82400000     -0.10720000     12.03500000    -11.24100000    -10.59700000
      2.59960000     62.76000000      0.12970000     12.49300000    -12.22400000    -10.48500000
      3.39970000    359.82400000     -0.17040000     11.56300000    -10.58900000     -9.51300000
      2.59960000     62.76000000      0.14300000     11.65100000    -11.03200000     -8.52100000
      3.39970000    359.82400000     -0.12560000     10.94900000     -9.31900000     -9.67100000
      2.59960000     62.76000000      0.13300000     10.55700000     -8.79100000     -8.80200000
      3.39970000    359.82400000      0.59730000     10.18900000     -5.25100000    -12.04200000
      2.95990000    878.64000000     -0.56790000      9.33700000     -4.51400000    -11.55200000
      3.25000000    711.28000000     -0.34790000     10.46600000     -5.28600000    -13.34000000
      1.06910000     65.68880000      0.27470000     11.33200000     -5.70400000    -13.65000000
      3.39970000    457.72960000     -0.24000000      9.58600000     -4.65500000    -14.35500000
      2.47140000     65.68880000      0.14260000      9.16300000     -3.73800000    -13.94400000
      3.39970000    457.72960000     -0.00940000     10.36500000     -4.30500000    -15.64500000
      2.64950000     65.68880000      0.03620000     11.05300000     -5.12000000    -15.87100000
      2.64950000     65.68880000      0.03620000      9.65400000     -4.19200000    -16.46400000
      3.39970000    457.72960000      0.01870000     11.14100000     -3.02700000    -15.47500000
      2.64950000     65.68880000      0.01030000     10.42400000     -2.20900000    -15.40900000
      2.64950000     65.68880000      0.01030000     11.69700000     -3.09800000    -14.54000000
      3.39970000    457.72960000     -0.04790000     12.11000000     -2.76200000    -16.62500000
      2.64950000     65.68880000      0.06210000     12.73100000     -3.64400000    -16.78100000
      2.64950000     65.68880000      0.06210000     11.54200000     -2.55400000    -17.53200000
      3.39970000    457.72960000     -0.01430000     13.00200000     -1.56200000    -16.29500000
      1.96000000     65.68880000      0.11350000     12.38900000     -0.66600000    -16.39700000
      1.96000000     65.68880000      0.11350000     13.31700000     -1.67000000    -15.25700000
      3.25000000    711.28000000     -0.38540000     14.21000000     -1.44300000    -17.17400000
      1.06910000     65.68880000      0.34000000     13.91800000     -1.34300000    -18.13600000
      1.06910000     65.68880000      0.34000000     14.74800000     -0.63300000    -16.89900000
      1.06910000     65.68880000      0.34000000     14.77800000     -2.27300000    -17.07900000
      3.39970000    359.82400000      0.73410000      8.42300000     -5.57200000    -14.63800000
      2.95990000    878.64000000     -0.58940000      8.58900000     -6.77300000    -14.62200000
      3.25000000    711.28000000     -0.25480000      7.22500000     -5.03000000    -14.83000000
      3.39970000    457.72960000      0.01920000      6.78000000     -3.62500000    -14.81400000
      2.47140000     65.68880000      0.03910000      7.10600000     -3.13200000    -15.73000000
      2.47140000     65.68880000      0.03910000      7.21600000     -3.11700000    -13.95300000
      3.39970000    457.72960000      0.01890000      5.26400000     -3.73500000    -14.71700000
      2.64950000     65.68880000      0.02130000      4.79200000     -2.87500000    -15.19200000
      2.64950000     65.68880000      0.02130000      4.95500000     -3.78800000    -13.67300000
      3.39970000    457.72960000     -0.00700000      4.93400000     -5.01100000    -15.43900000
      2.64950000     65.68880000      0.02530000      4.89700000     -4.87000000    -16.51900000
      2.64950000     65.68880000      0.02530000      3.99000000     -5.43300000    -15.09500000
      3.39970000    457.72960000     -0.02660000      6.09700000     -5.95600000    -15.07300000
      2.47140000     65.68880000      0.06410000      5.93400000     -6.49300000    -14.13900000
      3.39970000    359.82400000      0.58960000      6.30300000     -6.98400000    -16.23600000
      2.95990000    878.64000000     -0.57480000      5.89400000     -8.12000000    -16.09500000
      3.25000000    711.28000000     -0.41570000      6.95900000     -6.59300000    -17.32700000
      1.06910000     65.68880000      0.27190000      7.28100000     -5.64100000    -17.42500000
      3.39970000    457.72960000      0.03370000      7.12100000     -7.51000000    -18.47800000
      2.47140000     65.68880000      0.08230000      6.13200000     -7.92600000    -18.66900000
      3.39970000    457.72960000     -0.18250000      7.59600000     -6.78200000    -19.73700000
      2.64950000     65.68880000      0.06030000      8.58900000     -6.36800000    -19.56500000
      2.64950000     65.68880000      0.06030000      7.63500000     -7.48400000    -20.57000000
      2.64950000     65.68880000      0.06030000      6.90200000     -5.97500000    -19.97400000
      3.39970000    359.82400000      0.59730000      8.04400000     -8.68800000    -18.13200000
      2.95990000    878.64000000     -0.56790000      7.73700000     -9.81800000    -18.53900000
      3.25000000    711.28000000     -0.41570000      9.11900000     -8.45200000    -17.39400000
      1.06910000     65.68880000      0.27190000      9.34500000     -7.49900000    -17.14800000
      3.39970000    457.72960000     -0.03890000      9.99900000     -9.51900000    -16.91600000
      2.47140000     65.68880000      0.10070000     10.32600000    -10.12100000    -17.76400000
      3.39970000    457.72960000      0.36540000     11.25100000     -8.96100000    -16.19300000
      2.47140000     65.68880000      0.00430000     10.93800000     -8.51700000    -15.24800000
      3.39970000    457.72960000     -0.24380000     12.26400000    -10.05700000    -15.92500000
      2.64950000     65.68880000      0.06420000     12.57800000    -10.50100000    -16.87000000
      2.64950000     65.68880000      0.06420000     13.13100000     -9.63500000    -15.41700000
      2.64950000     65.68880000      0.06420000     11.81200000    -10.82400000    -15.29600000
      3.06650000    880.31360000     -0.67610000     11.84000000     -7.96400000    -17.02600000
      1.24730000     41.84000000      0.41020000     12.61900000     -7.60600000    -16.59400000
      3.39970000    359.82400000      0.59730000      9.27800000    -10.45300000    -15.91100000
      2.95990000    878.64000000     -0.56790000      9.30300000    -11.69400000    -16.05000000
      3.25000000    711.28000000     -0.41570000      8.54000000     -9.86400000    -14.96500000
      1.06910000     65.68880000      0.27190000      8.54200000     -8.85900000    -14.87000000
      3.39970000    457.72960000     -0.02750000      7.76500000    -10.65100000    -14.00400000
      2.47140000     65.68880000      0.11230000      8.43100000    -11.26700000    -13.39900000
      3.39970000    457.72960000     -0.00500000      6.98700000     -9.71600000    -13.07600000
      2.64950000     65.68880000      0.03390000      7.74300000     -9.10000000    -12.58900000
      2.64950000     65.68880000      0.03390000      6.33200000     -9.08200000    -13.67300000
      3.39970000    359.82400000     -0.14150000      6.16400000    -10.28400000    -12.01500000
      3.39970000    359.82400000     -0.16380000      4.77100000    -10.33000000    -12.00400000
      2.51060000     62.76000000      0.20620000      4.25400000     -9.90600000    -12.86500000
      3.25000000    711.28000000     -0.34180000      4.33100000    -10.93200000    -10.84800000
      1.06910000     65.68880000      0.34120000      3.36500000    -11.08900000    -10.59700000
      3.39970000    359.82400000      0.13800000      5.41700000    -11.26000000    -10.07800000
      3.39970000    359.82400000     -0.26010000      5.48500000    -11.85000000     -8.84100000
      2.59960000     62.76000000      0.15720000      4.55800000    -12.16200000     -8.36000000
      3.39970000    359.82400000     -0.11340000      6.75100000    -12.01200000     -8.27600000
      2.59960000     62.76000000      0.14170000      6.85600000    -12.42000000     -7.27100000
      3.39970000    359.82400000     -0.19720000      7.90000000    -11.65600000     -8.98600000
      2.59960000     62.76000000      0.14470000      8.88600000    -11.84300000     -8.56000000
      3.39970000    359.82400000     -0.23870000      7.83500000    -11.07500000    -10.21100000
      2.59960000     62.76000000      0.17000000      8.77400000    -10.84000000    -10.71300000
      3.39970000    359.82400000      0.12430000      6.58900000    -10.84400000    -10.78700000
      3.39970000    359.82400000      0.59730000      6.84900000    -11.58900000    -14.78200000
      2.95990000    878.64000000     -0.56790000      6.85900000    -12.79100000    -14.53000000
      3.25000000    711.28000000     -0.41570000      6.06300000    -11.05200000    -15.70000000
      1.06910000     65.68880000      0.27190000      6.14000000    -10.06900000    -15.91900000
      3.39970000    457.72960000      0.03370000      5.00500000    -11.85500000    -16.39700000
      2.47140000     65.68880000      0.08230000      4.39100000    -12.36400000    -15.65400000
      3.39970000    457.72960000     -0.18250000      4.09700000    -10.93700000    -17.24300000
      2.64950000     65.68880000      0.06030000      4.69700000    -10.42700000    -17.99700000
      2.64950000     65.68880000      0.06030000      3.33000000    -11.53600000    -17.73400000
      2.64950000     65.68880000      0.06030000      3.62300000    -10.19900000    -16.59700000
      3.39970000    359.82400000      0.59730000      5.63500000    -12.91300000    -17.25900000
      2.95990000    878.64000000     -0.56790000      5.16900000    -14.04900000    -17.31100000
      3.25000000    711.28000000     -0.41570000      6.71600000    -12.53700000    -17.93900000
      1.06910000     65.68880000      0.27190000      7.00500000    -11.57000000    -17.90800000
      3.39970000    457.72960000      0.03370000      7.43800000    -13.43700000    -18.79700000
      2.47140000     65.68880000      0.08230000      6.72700000    -13.79300000    -19.54200000
      3.39970000    457.72960000     -0.18250000      8.60200000    -12.73800000    -19.52200000
      2.64950000     65.68880000      0.06030000      9.32700000    -12.38400000    -18.78900000
      2.64950000     65.68880000      0.06030000      9.08500000    -13.44300000    -20.19900000
      2.64950000     65.68880000      0.06030000      8.22000000    -11.89200000    -20.09200000
      3.39970000    359.82400000      0.59730000      7.94500000    -14.66900000    -18.02000000
      2.95990000    878.64000000     -0.56790000      7.99300000    -15.77100000    -18.62400000
      3.25000000    711.28000000     -0.41570000      8.30500000    -14.51300000    -16.74100000
      1.06910000     65.68880000      0.27190000      8.34900000    -13.58700000    -16.33900000
      3.39970000    457.72960000     -0.00240000      8.83400000    -15.62600000    -15.96900000
      2.47140000     65.68880000      0.09780000      9.02300000    -16.48200000    -16.61700000
      3.39970000    457.72960000     -0.03430000     10.10900000    -15.22200000    -15.33600000
      2.64950000     65.68880000      0.02950000     10.08800000    -14.30300000    -14.75100000
      2.64950000     65.68880000      0.02950000     10.39300000    -16.05500000    -14.69300000
      3.39970000    359.82400000      0.01180000     11.18100000    -15.06800000    -16.31900000
      3.39970000    359.82400000     -0.12560000     11.99200000    -16.14300000    -16.57800000
      2.59960000     62.76000000      0.13300000     11.86800000    -17.07400000    -16.02500000
      3.39970000    359.82400000     -0.17040000     12.97700000    -16.04000000    -17.55200000
      2.59960000     62.76000000      0.14300000     13.61000000    -16.89500000    -17.78700000
      3.39970000    359.82400000     -0.10720000     13.15300000    -14.83700000    -18.22900000
      2.59960000     62.76000000      0.12970000     13.96700000    -14.73300000    -18.94700000
      3.39970000    359.82400000     -0.17040000     12.29100000    -13.76600000    -17.99100000
      2.59960000     62.76000000      0.14300000     12.41200000    -12.82500000    -18.52800000
      3.39970000    359.82400000     -0.12560000     11.29100000    -13.90500000    -17.07700000
      2.59960000     62.76000000      0.13300000     10.56800000    -13.10200000    -16.93400000
      3.39970000    359.82400000      0.59730000      7.84300000    -16.29900000    -14.97500000
      2.95990000    878.64000000     -0.56790000      8.25600000    -17.03300000    -14.08700000
      3.25000000    711.28000000     -0.41570000      6.53800000    -16.07800000    -15.17200000
      1.06910000     65.68880000      0.27190000      6.23200000    -15.38300000    -15.83800000
      3.39970000    457.72960000     -0.02520000      5.52300000    -16.82600000    -14.43800000
      2.47140000     65.68880000      0.06980000      4.74500000    -17.08200000    -15.15700000
      2.47140000     65.68880000      0.06980000      6.00400000    -17.73800000    -14.08400000
      3.39970000    359.82400000      0.59730000      4.90700000    -16.13200000    -13.29100000
      2.95990000    878.64000000     -0.56790000      4.08000000    -16.68700000    -12.58600000
      3.25000000    711.28000000     -0.41570000      5.29800000    -14.88500000    -13.07600000
      1.06910000     65.68880000      0.27190000      6.00500000    -14.45200000    -13.65200000
      3.39970000    457.72960000     -0.02520000      4.72200000    -14.11500000    -12.01200000
      2.47140000     65.68880000      0.06980000      4.59300000    -14.74500000    -11.13200000
      2.47140000     65.68880000      0.06980000      5.37900000    -13.28000000    -11.76700000
      3.39970000    359.82400000      0.59730000      3.39600000    -13.58300000    -12.42400000
      2.95990000    878.64000000     -0.56790000      3.16300000    -13.19400000    -13.57100000
      3.25000000    711.28000000     -0.41570000      2.49700000    -13.54700000    -11.48400000
      1.06910000     65.68880000      0.27190000      2.65300000    -13.96300000    -10.57700000
      3.39970000    457.72960000     -0.08750000      1.20300000    -12.96000000    -11.75500000
      2.47140000     65.68880000      0.09690000      1.17600000    -12.48800000    -12.73700000
      3.39970000    457.72960000      0.29850000      0.10100000    -14.03200000    -11.69500000
      2.64950000     65.68880000     -0.02970000      0.36100000    -14.82600000    -12.39500000
      3.39970000    457.72960000     -0.31920000     -0.05600000    -14.62400000    -10.28600000
      2.64950000     65.68880000      0.07910000     -0.31700000    -13.83100000     -9.58500000
      2.64950000     65.68880000      0.07910000     -0.84500000    -15.37600000    -10.29300000
      2.64950000     65.68880000      0.07910000      0.88200000    -15.08600000     -9.97900000
      3.39970000    457.72960000     -0.31920000     -1.22000000    -13.42800000    -12.15000000
      2.64950000     65.68880000      0.07910000     -1.12100000    -13.06600000    -13.17300000
      2.64950000     65.68880000      0.07910000     -2.00100000    -14.18700000    -12.10800000
      2.64950000     65.68880000      0.07910000     -1.48500000    -12.59800000    -11.49500000
      3.39970000    359.82400000      0.59730000      0.98000000    -11.84100000    -10.75100000
      2.95990000    878.64000000     -0.56790000      1.54000000    -11.87400000     -9.65100000
      3.25000000    711.28000000     -0.41570000      0.16500000    -10.86600000    -11.14000000
      1.06910000     65.68880000      0.27190000     -0.22800000    -10.91600000    -12.06900000
      3.39970000    457.72960000     -0.02520000     -0.19200000     -9.73000000    -10.29900000
      2.47140000     65.68880000      0.06980000     -0.98400000     -9.16000000    -10.78600000
      2.47140000     65.68880000      0.06980000     -0.54800000    -10.09700000     -9.33600000
      3.39970000    359.82400000      0.59730000      1.02200000     -8.80500000    -10.06600000
      2.95990000    878.64000000     -0.56790000      2.02200000     -8.85300000    -10.77700000
      3.25000000    711.28000000     -0.41570000      0.91500000     -7.97900000     -9.03100000
      1.06910000     65.68880000      0.27190000      0.08500000     -8.04200000     -8.45900000
      3.39970000    457.72960000      0.01430000      1.91600000     -6.97400000     -8.69000000
      2.47140000     65.68880000      0.10480000      2.34000000     -6.53200000     -9.59200000
      3.39970000    457.72960000     -0.20410000      1.23700000     -5.85700000     -7.86400000
      2.64950000     65.68880000      0.07970000      0.35800000     -5.52200000     -8.41400000
      2.64950000     65.68880000      0.07970000      0.93200000     -6.24200000     -6.89100000
      3.39970000    359.82400000      0.71300000      2.14200000     -4.68700000     -7.65200000
      2.95990000    878.64000000     -0.59310000      3.34200000     -4.84700000     -7.47800000
      3.25000000    711.28000000     -0.91910000      1.57500000     -3.49100000     -7.63400000
      1.06910000     65.68880000      0.41960000      2.14400000     -2.66800000     -7.49400000
      1.06910000     65.68880000      0.41960000      0.57600000     -3.40700000     -7.76000000
      3.39970000    359.82400000      0.59730000      3.05400000     -7.61700000     -7.88800000
      2.95990000    878.64000000     -0.56790000      2.79400000     -8.28000000     -6.88800000
      3.25000000    711.28000000     -0.25480000      4.29700000     -7.53100000     -8.37100000
      3.39970000    457.72960000      0.01920000      4.72300000     -7.00000000     -9.67100000
      2.47140000     65.68880000      0.03910000      4.69300000     -5.91100000     -9.65100000
      2.47140000     65.68880000      0.03910000      4.05800000     -7.36600000    -10.45300000
      3.39970000    457.72960000      0.01890000      6.11200000     -7.53400000     -9.80700000
      2.64950000     65.68880000      0.02130000      6.73200000     -6.77700000    -10.28700000
      2.64950000     65.68880000      0.02130000      6.08400000     -8.42900000    -10.42900000
      3.39970000    457.72960000     -0.00700000      6.59900000     -7.84900000     -8.45600000
      2.64950000     65.68880000      0.02530000      7.07700000     -6.96500000     -8.03300000
      2.64950000     65.68880000      0.02530000      7.30100000     -8.68300000     -8.44300000
      3.39970000    457.72960000     -0.02660000      5.35000000     -8.20500000     -7.64200000
      2.47140000     65.68880000      0.06410000      5.13600000     -9.27400000     -7.65800000
      3.39970000    359.82400000      0.58960000      5.46300000     -7.73100000     -6.19400000
      2.95990000    878.64000000     -0.57480000      5.89900000     -8.49900000     -5.26900000
      3.25000000    711.28000000     -0.41570000      5.03600000     -6.50600000     -5.94100000
      1.06910000     65.68880000      0.27190000      4.72300000     -5.90200000     -6.68800000
      3.39970000    457.72960000      0.03370000      5.07600000     -5.95800000     -4.56300000
      2.47140000     65.68880000      0.08230000      6.08200000     -6.16400000     -4.19700000
      3.39970000    457.72960000     -0.18250000      4.86200000     -4.46600000     -4.57000000
      2.64950000     65.68880000      0.06030000      3.85600000     -4.24400000     -4.92600000
      2.64950000     65.68880000      0.06030000      4.98300000     -4.07600000     -3.55900000
      2.64950000     65.68880000      0.06030000      5.59200000     -3.99700000     -5.23000000
      3.39970000    359.82400000      0.59730000      4.07500000     -6.58400000     -3.59600000
      2.95990000    878.64000000     -0.56790000      4.21200000     -6.40300000     -2.36500000
      3.25000000    711.28000000     -0.41570000      3.01600000     -7.18200000     -4.12900000
      1.06910000     65.68880000      0.27190000      2.83900000     -7.06900000     -5.11700000
      3.39970000    457.72960000      0.03370000      2.03100000     -7.93300000     -3.32100000
      2.47140000     65.68880000      0.08230000      1.97500000     -7.44400000     -2.34900000
      3.39970000    457.72960000     -0.18250000      0.60800000     -7.89400000     -3.98500000
      2.64950000     65.68880000      0.06030000      0.64600000     -8.38800000     -4.95600000
      2.64950000     65.68880000      0.06030000     -0.10700000     -8.40900000     -3.34300000
      2.64950000     65.68880000      0.06030000      0.29600000     -6.85800000     -4.11700000
      3.39970000    359.82400000      0.59730000      2.47400000     -9.37500000     -3.07900000
      2.95990000    878.64000000     -0.56790000      1.87500000    -10.11300000     -2.24300000
      3.25000000    711.28000000     -0.41570000      3.51000000     -9.84400000     -3.80500000
      1.06910000     65.68880000      0.27190000      3.93400000     -9.25900000     -4.51000000
      3.39970000    457.72960000      0.03370000      3.96000000    -11.19300000     -3.68500000
      2.47140000     65.68880000      0.08230000      3.09700000    -11.83400000     -3.50200000
      3.39970000    457.72960000     -0.18250000      4.64900000    -11.65600000     -4.96400000
      2.64950000     65.68880000      0.06030000      5.52000000    -11.02900000     -5.15500000
      2.64950000     65.68880000      0.06030000      4.96600000    -12.69300000     -4.85200000
      2.64950000     65.68880000      0.06030000      3.95500000    -11.57700000     -5.80000000
      3.39970000    359.82400000      0.59730000      4.85000000    -11.31500000     -2.44700000
      2.95990000    878.64000000     -0.56790000      5.46300000    -10.35100000     -2.09400000
      3.25000000    711.28000000     -0.41570000      4.87700000    -12.46500000     -1.79500000
      1.06910000     65.68880000      0.27190000      4.17500000    -13.15600000     -2.01600000
      3.39970000    457.72960000     -0.02490000      5.79200000    -12.74200000     -0.72200000
      2.47140000     65.68880000      0.08430000      5.69400000    -11.96000000      0.03100000
      3.39970000    457.72960000      0.21170000      5.53000000    -14.10600000     -0.05200000
      2.47140000     65.68880000      0.03520000      6.12200000    -14.16100000      0.86100000
      2.47140000     65.68880000      0.03520000      4.47100000    -14.17000000      0.19800000
      3.06650000    880.31360000     -0.65460000      5.88800000    -15.20900000     -0.92900000
      1.24730000     41.84000000      0.42750000      5.71400000    -16.04100000     -0.48400000
      3.39970000    359.82400000      0.59730000      7.24800000    -12.64100000     -1.22300000
      2.95990000    878.64000000     -0.56790000      7.53500000    -12.81400000     -2.40400000
      3.25000000    711.28000000     -0.34790000      8.14100000    -12.35600000     -0.29100000
      1.06910000     65.68880000      0.27470000      7.84300000    -12.10400000      0.64000000
      3.39970000    457.72960000     -0.26370000      9.63100000    -12.43500000     -0.57300000
      2.47140000     65.68880000      0.15600000      9.92400000    -11.61600000     -1.23000000
      3.39970000    457.72960000     -0.00070000     10.42500000    -12.33300000      0.71000000
      2.64950000     65.68880000      0.03270000     10.41100000    -11.28200000      0.99900000
      2.64950000     65.68880000      0.03270000      9.88700000    -12.92100000      1.45300000
      3.39970000    457.72960000      0.03900000     11.86200000    -12.81500000      0.62700000
      2.64950000     65.68880000      0.02850000     11.86300000    -13.85000000      0.28600000
      2.64950000     65.68880000      0.02850000     12.39600000    -12.19500000     -0.09400000
      3.39970000    457.72960000      0.04860000     12.56500000    -12.72500000      2.00700000
      2.47140000     65.68880000      0.06870000     12.67600000    -11.67600000      2.28000000
      2.47140000     65.68880000      0.06870000     11.94900000    -13.23000000      2.75100000
      3.25000000    711.28000000     -0.52950000     13.92600000    -13.36600000      1.99200000
      1.06910000     65.68880000      0.34560000     14.69300000    -12.71400000      2.07600000
      3.39970000    359.82400000      0.80760000     14.19800000    -14.66400000      1.96900000
      3.25000000    711.28000000     -0.86270000     13.29700000    -15.59500000      1.99500000
      1.06910000     65.68880000      0.44780000     12.31900000    -15.34600000      2.03500000
      1.06910000     65.68880000      0.44780000     13.57700000    -16.56500000      1.97500000
      3.25000000    711.28000000     -0.86270000     15.41300000    -15.07100000      1.82400000
      1.06910000     65.68880000      0.44780000     16.16000000    -14.39800000      1.72800000
      1.06910000     65.68880000      0.44780000     15.61200000    -16.06100000      1.80700000
      3.39970000    359.82400000      0.73410000      9.93200000    -13.79000000     -1.20500000
      2.95990000    878.64000000     -0.58940000     10.62500000    -13.83000000     -2.23000000
      3.25000000    711.28000000     -0.51630000      9.37500000    -14.88100000     -0.62600000
      1.06910000     65.68880000      0.29360000      8.87000000    -14.79300000      0.24400000
      3.39970000    457.72960000      0.03970000      9.61800000    -16.24900000     -1.16700000
      2.47140000     65.68880000      0.11050000     10.68900000    -16.44900000     -1.19600000
      3.39970000    457.72960000      0.05600000      8.92300000    -17.34300000     -0.25200000
      2.64950000     65.68880000     -0.01730000      9.53800000    -17.42100000      0.64400000
      2.64950000     65.68880000     -0.01730000      7.94600000    -16.93800000      0.01200000
      3.39970000    457.72960000      0.01360000      8.74800000    -18.73600000     -0.87500000
      2.64950000     65.68880000     -0.04250000      7.92200000    -18.67700000     -1.58400000
      2.64950000     65.68880000     -0.04250000      9.67300000    -18.94300000     -1.41300000
      3.39970000    359.82400000      0.80540000      8.47200000    -19.89100000      0.15600000
      2.95990000    878.64000000     -0.81880000      7.92000000    -19.62800000      1.27200000
      2.95990000    878.64000000     -0.81880000      8.78600000    -21.07600000     -0.14500000
      3.39970000    359.82400000      0.53660000      9.21100000    -16.36800000     -2.65600000
      2.95990000    878.64000000     -0.58190000      9.89600000    -16.95400000     -3.47500000
      3.25000000    711.28000000     -0.41570000      8.04100000    -15.84800000     -3.01000000
      1.06910000     65.68880000      0.27190000      7.44900000    -15.43800000     -2.30200000
      3.39970000    457.72960000     -0.00310000      7.54100000    -15.87500000     -4.43000000
      2.47140000     65.68880000      0.08500000      7.62200000    -16.88400000     -4.83400000
      3.39970000    457.72960000     -0.00360000      6.06100000    -15.44100000     -4.48100000
      2.64950000     65.68880000      0.01710000      5.96100000    -14.48300000     -3.97100000
      2.64950000     65.68880000      0.01710000      5.76600000    -15.33000000     -5.52400000
      3.39970000    457.72960000     -0.06450000      5.16200000    -16.47200000     -3.80600000
      2.64950000     65.68880000      0.03520000      5.09400000    -17.23300000     -4.58400000
      2.64950000     65.68880000      0.03520000      5.54300000    -16.92300000     -2.89000000
      3.39970000    359.82400000      0.69510000      3.77000000    -15.92800000     -3.53700000
      2.95990000    878.64000000     -0.60860000      3.56300000    -14.76300000     -3.22800000
      3.25000000    711.28000000     -0.94070000      2.83700000    -16.84400000     -3.46800000
      1.06910000     65.68880000      0.42510000      1.88000000    -16.57300000     -3.29200000
      1.06910000     65.68880000      0.42510000      3.07900000    -17.81700000     -3.59100000
      3.39970000    359.82400000      0.59730000      8.32100000    -14.98300000     -5.38600000
      2.95990000    878.64000000     -0.56790000      8.54800000    -15.35700000     -6.57000000
      3.25000000    711.28000000     -0.41570000      8.75100000    -13.81300000     -4.89400000
      1.06910000     65.68880000      0.27190000      8.45500000    -13.51900000     -3.97400000
      3.39970000    457.72960000     -0.00310000      9.59200000    -12.89500000     -5.68400000
      2.47140000     65.68880000      0.08500000      9.10600000    -12.68400000     -6.63600000
      3.39970000    457.72960000     -0.00360000      9.80600000    -11.59800000     -4.95600000
      2.64950000     65.68880000      0.01710000     10.18200000    -11.83600000     -3.96100000
      2.64950000     65.68880000      0.01710000     10.56000000    -11.03200000     -5.50300000
      3.39970000    457.72960000     -0.06450000      8.54500000    -10.77000000     -4.83400000
      2.64950000     65.68880000      0.03520000      8.22500000    -10.52800000     -5.84800000
      2.64950000     65.68880000      0.03520000      7.76100000    -11.33600000     -4.33100000
      3.39970000    359.82400000      0.69510000      8.77200000     -9.46800000     -4.07100000
      2.95990000    878.64000000     -0.60860000      9.65600000     -8.67000000     -4.42700000
      3.25000000    711.28000000     -0.94070000      8.03800000     -9.28600000     -3.03800000
      1.06910000     65.68880000      0.42510000      8.14100000     -8.44300000     -2.49100000
      1.06910000     65.68880000      0.42510000      7.35900000     -9.98600000     -2.77500000
      3.39970000    359.82400000      0.59730000     10.87700000    -13.63400000     -5.96500000
      2.95990000    878.64000000     -0.56790000     11.43900000    -13.46600000     -7.08400000
      3.25000000    711.28000000     -0.41570000     11.40400000    -14.32300000     -4.95200000
      1.06910000     65.68880000      0.27190000     11.00200000    -14.28700000     -4.02600000
      3.39970000    457.72960000     -0.05970000     12.67800000    -15.04100000     -5.13300000
      2.47140000     65.68880000      0.08690000     13.42000000    -14.43700000     -5.65600000
      3.39970000    457.72960000      0.13030000     13.24600000    -15.48400000     -3.76800000
      2.64950000     65.68880000      0.01870000     12.42600000    -15.84100000     -3.14500000
      3.39970000    457.72960000     -0.32040000     14.29000000    -16.61700000     -3.94700000
      2.64950000     65.68880000      0.08820000     15.11100000    -16.26100000     -4.57000000
      2.64950000     65.68880000      0.08820000     14.67700000    -16.91300000     -2.97200000
      2.64950000     65.68880000      0.08820000     13.81800000    -17.47500000     -4.42600000
      3.39970000    457.72960000     -0.04300000     13.83000000    -14.23800000     -3.07000000
      2.64950000     65.68880000      0.02360000     14.69700000    -13.90700000     -3.64100000
      2.64950000     65.68880000      0.02360000     13.06900000    -13.45800000     -3.08000000
      3.39970000    457.72960000     -0.06600000     14.23300000    -14.51100000     -1.68200000
      2.64950000     65.68880000      0.01860000     14.99400000    -15.29100000     -1.67100000
      2.64950000     65.68880000      0.01860000     14.63700000    -13.60300000     -1.23500000
      2.64950000     65.68880000      0.01860000     13.36600000    -14.84200000     -1.11000000
      3.39970000    359.82400000      0.59730000     12.56100000    -16.20500000     -6.12000000
      2.95990000    878.64000000     -0.56790000     13.45400000    -16.42500000     -6.97200000
      3.25000000    711.28000000     -0.41570000     11.44100000    -16.87300000     -6.07900000
      1.06910000     65.68880000      0.27190000     10.76600000    -16.67800000     -5.35400000
      3.39970000    457.72960000      0.03370000     11.15800000    -17.97000000     -7.01900000
      2.47140000     65.68880000      0.08230000     11.94800000    -18.71600000     -6.93600000
      3.39970000    457.72960000     -0.18250000      9.83500000    -18.63000000     -6.70200000
      2.64950000     65.68880000      0.06030000      9.03300000    -17.89700000     -6.79000000
      2.64950000     65.68880000      0.06030000      9.65900000    -19.44700000     -7.40200000
      2.64950000     65.68880000      0.06030000      9.85900000    -19.02200000     -5.68500000
      3.39970000    359.82400000      0.59730000     11.18700000    -17.45500000     -8.43000000
      2.95990000    878.64000000     -0.56790000     11.78000000    -18.14300000     -9.29200000
      3.25000000    711.28000000     -0.41570000     10.57300000    -16.28200000     -8.71000000
      1.06910000     65.68880000      0.27190000      9.97300000    -15.84900000     -8.02200000
      3.39970000    457.72960000     -0.08750000     10.59800000    -15.72200000    -10.05500000
      2.47140000     65.68880000      0.09690000     10.46200000    -16.50300000    -10.80300000
      3.39970000    457.72960000      0.29850000      9.56000000    -14.63000000    -10.29600000
      2.64950000     65.68880000     -0.02970000      9.72400000    -13.84100000     -9.56200000
      3.39970000    457.72960000     -0.31920000      9.64900000    -14.04300000    -11.70000000
      2.64950000     65.68880000      0.07910000      9.48500000    -14.83100000    -12.43500000
      2.64950000     65.68880000      0.07910000      8.88900000    -13.27100000    -11.82000000
      2.64950000     65.68880000      0.07910000     10.63700000    -13.60700000    -11.85000000
      3.39970000    457.72960000     -0.31920000      8.16100000    -15.17400000    -10.02800000
      2.64950000     65.68880000      0.07910000      8.09400000    -15.51100000     -8.99400000
      2.64950000     65.68880000      0.07910000      7.42600000    -14.38900000    -10.20200000
      2.64950000     65.68880000      0.07910000      7.96200000    -16.01200000    -10.69600000
      3.39970000    359.82400000      0.59730000     12.02500000    -15.31500000    -10.39100000
      2.95990000    878.64000000     -0.56790000     12.47100000    -15.54300000    -11.50800000
      3.25000000    711.28000000     -0.41570000     12.75100000    -14.73900000     -9.42900000
      1.06910000     65.68880000      0.27190000     12.37600000    -14.53500000     -8.51400000
      3.39970000    457.72960000      0.03370000     14.09900000    -14.28800000     -9.73900000
      2.47140000     65.68880000      0.08230000     14.03500000    -13.64000000    -10.61300000
      3.39970000    457.72960000     -0.18250000     14.70700000    -13.48800000     -8.58000000
      2.64950000     65.68880000      0.06030000     14.78600000    -14.12600000     -7.70000000
      2.64950000     65.68880000      0.06030000     15.69900000    -13.13500000     -8.86200000
      2.64950000     65.68880000      0.06030000     14.06900000    -12.63400000     -8.35300000
      3.39970000    359.82400000      0.59730000     14.95900000    -15.44700000    -10.12300000
      2.95990000    878.64000000     -0.56790000     15.81800000    -15.30500000    -11.03200000
      3.25000000    711.28000000     -0.41570000     14.83600000    -16.57900000     -9.41800000
      1.06910000     65.68880000      0.27190000     14.22500000    -16.62700000     -8.61500000
      3.39970000    457.72960000      0.01430000     15.64400000    -17.71800000     -9.72300000
      2.47140000     65.68880000      0.10480000     16.69300000    -17.42400000     -9.68100000
      3.39970000    457.72960000     -0.20410000     15.42200000    -18.87600000     -8.75100000
      2.64950000     65.68880000      0.07970000     14.36500000    -18.97000000     -8.50300000
      2.64950000     65.68880000      0.07970000     15.76600000    -19.79400000     -9.22700000
      3.39970000    359.82400000      0.71300000     16.20000000    -18.67300000     -7.47600000
      2.95990000    878.64000000     -0.59310000     17.33700000    -18.17800000     -7.51700000
      3.25000000    711.28000000     -0.91910000     15.60000000    -19.01700000     -6.36800000
      1.06910000     65.68880000      0.41960000     16.07500000    -18.90300000     -5.48400000
      1.06910000     65.68880000      0.41960000     14.66400000    -19.39600000     -6.40100000
      3.39970000    359.82400000      0.59730000     15.42900000    -18.20500000    -11.20600000
      2.95990000    878.64000000     -0.56790000     16.38300000    -18.58900000    -11.91100000
      3.25000000    711.28000000     -0.34790000     14.18400000    -18.18800000    -11.65800000
      1.06910000     65.68880000      0.27470000     13.39600000    -18.04500000    -11.04200000
      3.39970000    457.72960000     -0.26370000     13.92000000    -18.44000000    -13.07700000
      2.47140000     65.68880000      0.15600000     14.30000000    -19.42000000    -13.36400000
      3.39970000    457.72960000     -0.00070000     12.42800000    -18.40800000    -13.32500000
      2.64950000     65.68880000      0.03270000     12.05700000    -17.41900000    -13.05700000
      2.64950000     65.68880000      0.03270000     12.25300000    -18.58600000    -14.38600000
      3.39970000    457.72960000      0.03900000     11.71200000    -19.43900000    -12.52500000
      2.64950000     65.68880000      0.02850000     11.91500000    -20.43300000    -12.92300000
      2.64950000     65.68880000      0.02850000     12.02700000    -19.39400000    -11.48300000
      3.39970000    457.72960000      0.04860000     10.24100000    -19.15500000    -12.61500000
      2.47140000     65.68880000      0.06870000     10.01400000    -18.19200000    -12.15700000
      2.47140000     65.68880000      0.06870000      9.92100000    -19.14600000    -13.65700000
      3.25000000    711.28000000     -0.52950000      9.52300000    -20.16400000    -11.92900000
      1.06910000     65.68880000      0.34560000     10.04300000    -20.79700000    -11.33800000
      3.39970000    359.82400000      0.80760000      8.22700000    -20.31500000    -12.01600000
      3.25000000    711.28000000     -0.86270000      7.52100000    -19.48600000    -12.75900000
      1.06910000     65.68880000      0.44780000      7.98400000    -18.73900000    -13.25700000
      1.06910000     65.68880000      0.44780000      6.52000000    -19.60100000    -12.82700000
      3.25000000    711.28000000     -0.86270000      7.63500000    -21.30000000    -11.36400000
      1.06910000     65.68880000      0.44780000      8.18600000    -21.93200000    -10.80100000
      1.06910000     65.68880000      0.44780000      6.63400000    -21.41600000    -11.43100000
      3.39970000    359.82400000      0.73410000     14.62000000    -17.44200000    -14.01500000
      2.95990000    878.64000000     -0.58940000     15.14100000    -17.86700000    -15.13400000
      3.25000000    711.28000000     -0.41570000     14.58600000    -16.14500000    -13.65900000
      1.06910000     65.68880000      0.27190000     14.13400000    -15.87900000    -12.79600000
      3.39970000    457.72960000     -0.08750000     15.15500000    -15.09400000    -14.49400000
      2.47140000     65.68880000      0.09690000     14.70900000    -15.15700000    -15.48700000
      3.39970000    457.72960000      0.29850000     14.86100000    -13.66400000    -13.89900000
      2.64950000     65.68880000     -0.02970000     15.12200000    -13.64200000    -12.84100000
      3.39970000    457.72960000     -0.31920000     15.71200000    -12.62900000    -14.65900000
      2.64950000     65.68880000      0.07910000     15.45200000    -12.65000000    -15.71700000
      2.64950000     65.68880000      0.07910000     15.51900000    -11.63400000    -14.25800000
      2.64950000     65.68880000      0.07910000     16.76900000    -12.86900000    -14.54000000
      3.39970000    457.72960000     -0.31920000     13.40200000    -13.30900000    -14.06800000
      2.64950000     65.68880000      0.07910000     12.78600000    -14.04200000    -13.54700000
      2.64950000     65.68880000      0.07910000     13.21800000    -12.31900000    -13.65100000
      2.64950000     65.68880000      0.07910000     13.14800000    -13.31000000    -15.12800000
      3.39970000    359.82400000      0.59730000     16.64000000    -15.30400000    -14.60700000
      2.95990000    878.64000000     -0.56790000     17.26400000    -15.19400000    -15.71700000
      3.25000000    711.28000000     -0.41570000     17.22800000    -15.68300000    -13.49400000
      1.06910000     65.68880000      0.27190000     16.72100000    -15.73300000    -12.62200000
      3.39970000    457.72960000     -0.05180000     18.65700000    -15.98700000    -13.48300000
      2.47140000     65.68880000      0.09220000     19.23400000    -15.12700000    -13.82300000
      3.39970000    457.72960000     -0.11020000     19.07500000    -16.32100000    -12.07200000
      2.64950000     65.68880000      0.04570000     18.86000000    -15.42100000    -11.49600000
      2.64950000     65.68880000      0.04570000     18.43900000    -17.13500000    -11.72400000
      3.39970000    457.72960000      0.35310000     20.52700000    -16.70200000    -11.88800000
      2.64950000     65.68880000     -0.03610000     20.77500000    -17.52500000    -12.55800000
      3.39970000    457.72960000     -0.41210000     21.41200000    -15.50100000    -12.20800000
      2.64950000     65.68880000      0.10000000     21.16500000    -14.67800000    -11.53800000
      2.64950000     65.68880000      0.10000000     22.45900000    -15.77500000    -12.07600000
      2.64950000     65.68880000      0.10000000     21.24600000    -15.19100000    -13.24000000
      3.39970000    457.72960000     -0.41210000     20.72300000    -17.16400000    -10.47800000
      2.64950000     65.68880000      0.10000000     20.08500000    -18.02700000    -10.28600000
      2.64950000     65.68880000      0.10000000     21.76600000    -17.44300000    -10.32800000
      2.64950000     65.68880000      0.10000000     20.46000000    -16.35900000     -9.79200000
      3.39970000    359.82400000      0.59730000     19.07700000    -17.12300000    -14.41000000
      2.95990000    878.64000000     -0.56790000     20.06500000    -16.97800000    -15.17400000
      3.25000000    711.28000000     -0.41570000     18.35400000    -18.24100000    -14.32400000
      1.06910000     65.68880000      0.27190000     17.66700000    -18.33300000    -13.59000000
      3.39970000    457.72960000      0.03370000     18.58800000    -19.38000000    -15.19400000
      2.47140000     65.68880000      0.08230000     19.60400000    -19.72200000    -14.99500000
      3.39970000    457.72960000     -0.18250000     17.62300000    -20.50800000    -14.86900000
      2.64950000     65.68880000      0.06030000     16.60200000    -20.18400000    -15.07200000
      2.64950000     65.68880000      0.06030000     17.85700000    -21.37600000    -15.48500000
      2.64950000     65.68880000      0.06030000     17.71600000    -20.77500000    -13.81600000
      3.39970000    359.82400000      0.59730000     18.51400000    -19.01100000    -16.69500000
      2.95990000    878.64000000     -0.56790000     19.37200000    -19.37900000    -17.45300000
      3.25000000    711.28000000     -0.51630000     17.55200000    -18.20800000    -17.10700000
      1.06910000     65.68880000      0.29360000     16.87400000    -17.86800000    -16.44000000
      3.39970000    457.72960000      0.03970000     17.39000000    -17.83000000    -18.52000000
      2.47140000     65.68880000      0.11050000     17.64300000    -18.66400000    -19.17400000
      3.39970000    457.72960000      0.05600000     15.92200000    -17.44600000    -18.76000000
      2.64950000     65.68880000     -0.01730000     15.33100000    -18.31800000    -18.47800000
      2.64950000     65.68880000     -0.01730000     15.70800000    -16.62600000    -18.07500000
      3.39970000    457.72960000      0.01360000     15.56200000    -17.02700000    -20.18300000
      2.64950000     65.68880000     -0.04250000     14.57300000    -16.57000000    -20.15900000
      2.64950000     65.68880000     -0.04250000     16.29200000    -16.29500000    -20.52800000
      3.39970000    359.82400000      0.80540000     15.54800000    -18.21200000    -21.13100000
      2.95990000    878.64000000     -0.81880000     15.43500000    -19.37100000    -20.63800000
      2.95990000    878.64000000     -0.81880000     15.65800000    -18.00000000    -22.35800000
      3.39970000    359.82400000      0.53660000     18.29100000    -16.67000000    -19.04000000
      2.95990000    878.64000000     -0.58190000     18.70400000    -16.69500000    -20.19900000
      3.25000000    711.28000000     -0.41570000     18.49800000    -15.64600000    -18.23300000
      1.06910000     65.68880000      0.27190000     18.25100000    -15.79500000    -17.26500000
      3.39970000    457.72960000     -0.00310000     19.10200000    -14.31200000    -18.62300000
      2.47140000     65.68880000      0.08500000     19.28700000    -14.28500000    -19.69700000
      3.39970000    457.72960000     -0.00360000     18.13300000    -13.16900000    -18.26200000
      2.64950000     65.68880000      0.01710000     17.93200000    -13.25000000    -17.19400000
      2.64950000     65.68880000      0.01710000     18.65700000    -12.23400000    -18.46300000
      3.39970000    457.72960000     -0.06450000     16.84400000    -13.18800000    -19.01300000
      2.64950000     65.68880000      0.03520000     17.06800000    -13.30700000    -20.07300000
      2.64950000     65.68880000      0.03520000     16.26800000    -14.04600000    -18.66500000
      3.39970000    359.82400000      0.69510000     16.00700000    -11.93700000    -18.83300000
      2.95990000    878.64000000     -0.60860000     16.30000000    -11.06700000    -18.01000000
      3.25000000    711.28000000     -0.94070000     14.93000000    -11.83200000    -19.62900000
      1.06910000     65.68880000      0.42510000     14.33100000    -11.02200000    -19.55900000
      1.06910000     65.68880000      0.42510000     14.72400000    -12.56400000    -20.29400000
      3.39970000    359.82400000      0.59730000     20.41900000    -13.96500000    -17.89300000
      2.95990000    878.64000000     -0.56790000     21.13100000    -13.06200000    -18.30100000
      3.25000000    711.28000000     -0.41570000     20.72900000    -14.69700000    -16.83100000
      1.06910000     65.68880000      0.27190000     20.13000000    -15.46200000    -16.55300000
      3.39970000    457.72960000     -0.02520000     21.90200000    -14.43600000    -16.05300000
      2.47140000     65.68880000      0.06980000     22.10000000    -15.28600000    -15.40000000
      2.47140000     65.68880000      0.06980000     22.75100000    -14.28400000    -16.71900000
      3.39970000    359.82400000      0.59730000     21.71000000    -13.17200000    -15.18700000
      2.95990000    878.64000000     -0.56790000     20.59700000    -12.59100000    -15.07900000
      3.25000000    711.28000000     -0.41570000     22.76200000    -12.76900000    -14.51100000
      1.06910000     65.68880000      0.27190000     23.65000000    -13.24700000    -14.56200000
      3.39970000    457.72960000     -0.05180000     22.65000000    -11.62200000    -13.63600000
      2.47140000     65.68880000      0.09220000     21.76300000    -11.70400000    -13.00800000
      3.39970000    457.72960000     -0.11020000     23.89400000    -11.56400000    -12.72700000
      2.64950000     65.68880000      0.04570000     24.70700000    -11.70800000    -13.43900000
      2.64950000     65.68880000      0.04570000     23.98000000    -10.57700000    -12.27400000
      3.39970000    457.72960000      0.35310000     23.97600000    -12.64300000    -11.62800000
      2.64950000     65.68880000     -0.03610000     23.82700000    -13.63100000    -12.06300000
      3.39970000    457.72960000     -0.41210000     25.37000000    -12.57200000    -10.98300000
      2.64950000     65.68880000      0.10000000     25.52000000    -11.58400000    -10.54800000
      2.64950000     65.68880000      0.10000000     25.44800000    -13.32800000    -10.20200000
      2.64950000     65.68880000      0.10000000     26.13200000    -12.75300000    -11.74100000
      3.39970000    457.72960000     -0.41210000     22.88800000    -12.50800000    -10.66000000
      2.64950000     65.68880000      0.10000000     21.93100000    -12.61000000    -11.17200000
      2.64950000     65.68880000      0.10000000     22.97800000    -13.28500000     -9.90100000
      2.64950000     65.68880000      0.10000000     22.94300000    -11.52800000    -10.18500000
      3.39970000    359.82400000      0.59730000     22.52400000    -10.31000000    -14.44200000
      2.95990000    878.64000000     -0.56790000     22.39700000     -9.27400000    -13.82900000
      3.25000000    711.28000000     -0.51630000     22.66200000    -10.37100000    -15.76600000
      1.06910000     65.68880000      0.29360000     22.90800000    -11.25700000    -16.18400000
      3.39970000    457.72960000      0.03810000     22.52000000     -9.20900000    -16.63900000
      2.47140000     65.68880000      0.08800000     23.25400000     -8.45400000    -16.35700000
      3.39970000    457.72960000     -0.03030000     22.74200000     -9.58300000    -18.11500000
      2.64950000     65.68880000     -0.01220000     22.38200000    -10.60500000    -18.23500000
      2.64950000     65.68880000     -0.01220000     22.15200000     -8.91500000    -18.74200000
      3.39970000    359.82400000      0.79940000     24.21000000     -9.50800000    -18.53200000
      2.95990000    878.64000000     -0.80140000     25.06800000     -9.08000000    -17.71700000
      2.95990000    878.64000000     -0.80140000     24.51700000     -9.84900000    -19.68600000
      3.39970000    359.82400000      0.53660000     21.14400000     -8.61300000    -16.44700000
      2.95990000    878.64000000     -0.58190000     20.90000000     -7.46700000    -16.81200000
      3.25000000    711.28000000     -0.41570000     20.23600000     -9.35300000    -15.82600000
      1.06910000     65.68880000      0.27190000     20.39200000    -10.32200000    -15.58700000
      3.39970000    457.72960000      0.03370000     18.95100000     -8.79200000    -15.57000000
      2.47140000     65.68880000      0.08230000     18.62000000     -8.27800000    -16.47200000
      3.39970000    457.72960000     -0.18250000     17.96800000     -9.92500000    -15.26400000
      2.64950000     65.68880000      0.06030000     18.28100000    -10.44400000    -14.35800000
      2.64950000     65.68880000      0.06030000     16.97000000     -9.51100000    -15.11800000
      2.64950000     65.68880000      0.06030000     17.95200000    -10.62700000    -16.09700000
      3.39970000    359.82400000      0.59730000     18.98100000     -7.72100000    -14.42400000
      2.95990000    878.64000000     -0.56790000     18.05100000     -6.97500000    -14.29300000
      3.25000000    711.28000000     -0.41570000     20.04000000     -7.69900000    -13.60100000
      1.06910000     65.68880000      0.27190000     20.70000000     -8.45200000    -13.73200000
      3.39970000    457.72960000     -0.02750000     20.31400000     -6.70600000    -12.55100000
      2.47140000     65.68880000      0.11230000     19.58700000     -5.89400000    -12.57600000
      3.39970000    457.72960000     -0.00500000     20.20300000     -7.43000000    -11.17800000
      2.64950000     65.68880000      0.03390000     20.80500000     -8.33700000    -11.23700000
      2.64950000     65.68880000      0.03390000     20.54700000     -6.82000000    -10.34300000
      3.39970000    359.82400000     -0.14150000     18.80600000     -7.86300000    -10.84600000
      3.39970000    359.82400000     -0.16380000     17.83100000     -7.10300000    -10.18900000
      2.51060000     62.76000000      0.20620000     18.09900000     -6.08100000     -9.92300000
      3.25000000    711.28000000     -0.34180000     16.70000000     -7.84200000    -10.01500000
      1.06910000     65.68880000      0.34120000     15.89000000     -7.57700000     -9.47300000
      3.39970000    359.82400000      0.13800000     16.90000000     -9.06700000    -10.60400000
      3.39970000    359.82400000     -0.26010000     16.04300000    -10.16700000    -10.67800000
      2.59960000     62.76000000      0.15720000     15.03400000    -10.04400000    -10.28500000
      3.39970000    359.82400000     -0.11340000     16.51500000    -11.33500000    -11.23800000
      2.59960000     62.76000000      0.14170000     15.85900000    -12.20200000    -11.31600000
      3.39970000    359.82400000     -0.19720000     17.80700000    -11.43100000    -11.70400000
      2.59960000     62.76000000      0.14470000     18.20000000    -12.37000000    -12.09300000
      3.39970000    359.82400000     -0.23870000     18.66300000    -10.30900000    -11.69100000
      2.59960000     62.76000000      0.17000000     19.60000000    -10.37300000    -12.24500000
      3.39970000    359.82400000      0.12430000     18.22200000     -9.12700000    -11.06200000
      3.39970000    359.82400000      0.59730000     21.73600000     -6.17200000    -12.80600000
      2.95990000    878.64000000     -0.56790000     22.68000000     -6.61800000    -12.18500000
      3.25000000    711.28000000     -0.25480000     21.90100000     -5.25500000    -13.80900000
      3.39970000    457.72960000      0.01920000     20.83400000     -4.59600000    -14.58200000
      2.47140000     65.68880000      0.03910000     20.19800000     -4.03200000    -13.90000000
      2.47140000     65.68880000      0.03910000     20.23900000     -5.35700000    -15.08700000
      3.39970000    457.72960000      0.01890000     21.55600000     -3.73100000    -15.52700000
      2.64950000     65.68880000      0.02130000     21.38100000     -2.69400000    -15.24100000
      2.64950000     65.68880000      0.02130000     21.15200000     -3.90500000    -16.52400000
      3.39970000    457.72960000     -0.00700000     23.01500000     -4.07600000    -15.47200000
      2.64950000     65.68880000      0.02530000     23.67400000     -3.21000000    -15.41500000
      2.64950000     65.68880000      0.02530000     23.23000000     -4.63600000    -16.38200000
      3.39970000    457.72960000     -0.02660000     23.22400000     -4.97100000    -14.24700000
      2.47140000     65.68880000      0.06410000     23.62200000     -5.91400000    -14.62300000
      3.39970000    359.82400000      0.58960000     24.19500000     -4.38600000    -13.18900000
      2.95990000    878.64000000     -0.57480000     25.40500000     -4.64100000    -13.29800000
      3.25000000    711.28000000     -0.41570000     23.71600000     -3.65100000    -12.19900000
      1.06910000     65.68880000      0.27190000     22.74700000     -3.36700000    -12.21300000
      3.39970000    457.72960000     -0.03890000     24.58200000     -3.13000000    -11.12300000
      2.47140000     65.68880000      0.10070000     25.61800000     -3.25300000    -11.43800000
      3.39970000    457.72960000      0.36540000     24.32200000     -1.65400000    -10.87700000
      2.47140000     65.68880000      0.00430000     23.29800000     -1.54200000    -10.52200000
      3.39970000    457.72960000     -0.24380000     25.33100000     -1.04300000     -9.79600000
      2.64950000     65.68880000      0.06420000     26.35600000     -1.15400000    -10.15100000
      2.64950000     65.68880000      0.06420000     25.11100000      0.01400000     -9.65000000
      2.64950000     65.68880000      0.06420000     25.21500000     -1.57200000     -8.85000000
      3.06650000    880.31360000     -0.67610000     24.53300000     -0.95200000    -12.09100000
      1.24730000     41.84000000      0.41020000     24.37200000     -0.01600000    -11.95100000
      3.39970000    359.82400000      0.59730000     24.48500000     -3.90900000     -9.80600000
      2.95990000    878.64000000     -0.56790000     25.50800000     -4.23000000     -9.14400000
      3.25000000    711.28000000     -0.41570000     23.26100000     -4.30600000     -9.47400000
      1.06910000     65.68880000      0.27190000     22.47900000     -4.06300000    -10.06500000
      3.39970000    457.72960000      0.02130000     22.98800000     -5.02300000     -8.21000000
      2.47140000     65.68880000      0.11240000     23.64100000     -4.67900000     -7.40800000
      3.39970000    457.72960000     -0.12310000     21.54800000     -4.72500000     -7.82500000
      2.47140000     65.68880000      0.11120000     20.86700000     -4.93200000     -8.65000000
      2.47140000     65.68880000      0.11120000     21.24500000     -5.30100000     -6.95100000
      3.53240000   1181.56160000     -0.31190000     21.29900000     -3.00100000     -7.39500000
      1.08900000     51.88160000      0.19330000     20.00000000     -3.11000000     -7.13000000
      3.39970000    359.82400000      0.59730000     23.25000000     -6.52900000     -8.26900000
      2.95990000    878.64000000     -0.56790000     23.40000000     -7.15600000     -7.25100000
      3.25000000    711.28000000     -0.41570000     23.39600000     -7.10500000     -9.46100000
      1.06910000     65.68880000      0.27190000     23.33900000     -6.56200000    -10.31100000
      3.39970000    457.72960000     -0.02520000     23.64000000     -8.52400000     -9.57000000
      2.47140000     65.68880000      0.06980000     22.72300000     -9.02800000     -9.26500000
      2.47140000     65.68880000      0.06980000     23.83500000     -8.73200000    -10.62200000
      3.39970000    359.82400000      0.59730000     24.77900000     -9.04700000     -8.75000000
      2.95990000    878.64000000     -0.56790000     24.68800000    -10.12400000     -8.19000000
      3.25000000    711.28000000     -0.41570000     25.90200000     -8.32800000     -8.76100000
      1.06910000     65.68880000      0.27190000     25.91800000     -7.46600000     -9.28700000
      3.39970000    457.72960000      0.03370000     27.15000000     -8.74800000     -8.04600000
      2.47140000     65.68880000      0.08230000     27.51500000     -9.68500000     -8.46800000
      3.39970000    457.72960000     -0.18250000     28.23800000     -7.66800000     -8.22900000
      2.64950000     65.68880000      0.06030000     27.89100000     -6.72600000     -7.80300000
      2.64950000     65.68880000      0.06030000     29.15000000     -7.98100000     -7.72200000
      2.64950000     65.68880000      0.06030000     28.44200000     -7.53300000     -9.29100000
      3.39970000    359.82400000      0.59730000     26.91000000     -8.96100000     -6.54800000
      2.95990000    878.64000000     -0.56790000     27.60100000     -9.76300000     -5.93000000
      3.25000000    711.28000000     -0.41570000     25.88400000     -8.29100000     -5.96200000
      1.06910000     65.68880000      0.27190000     25.38500000     -7.56700000     -6.45900000
      3.39970000    457.72960000      0.03370000     25.53900000     -8.53700000     -4.58300000
      2.47140000     65.68880000      0.08230000     26.47000000     -8.41700000     -4.02900000
      3.39970000    457.72960000     -0.18250000     24.51400000     -7.48700000     -4.06700000
      2.64950000     65.68880000      0.06030000     23.57400000     -7.60100000     -4.60600000
      2.64950000     65.68880000      0.06030000     24.34200000     -7.63900000     -3.00100000
      2.64950000     65.68880000      0.06030000     24.90700000     -6.48400000     -4.23100000
      3.39970000    359.82400000      0.59730000     24.99400000     -9.94600000     -4.30100000
      2.95990000    878.64000000     -0.56790000     25.13900000    -10.41600000     -3.17900000
      3.25000000    711.28000000     -0.41570000     24.55200000    -10.66600000     -5.33600000
      1.06910000     65.68880000      0.27190000     24.45100000    -10.21600000     -6.23500000
      3.39970000    457.72960000     -0.02490000     24.17600000    -12.04100000     -5.22000000
      2.47140000     65.68880000      0.08430000     23.31000000    -12.14200000     -4.56600000
      3.39970000    457.72960000      0.21170000     23.81100000    -12.59200000     -6.60800000
      2.47140000     65.68880000      0.03520000     23.31500000    -13.55500000     -6.49000000
      2.47140000     65.68880000      0.03520000     23.13600000    -11.89400000     -7.10300000
      3.06650000    880.31360000     -0.65460000     25.00400000    -12.75900000     -7.41000000
      1.24730000     41.84000000      0.42750000     24.76400000    -13.10300000     -8.27300000
      3.39970000    359.82400000      0.59730000     25.29500000    -12.89000000     -4.60300000
      2.95990000    878.64000000     -0.56790000     25.08000000    -14.01200000     -4.13100000
      3.25000000    711.28000000     -0.41570000     26.53900000    -12.44900000     -4.78300000
      1.06910000     65.68880000      0.27190000     26.73300000    -11.52000000     -5.12900000
      3.39970000    457.72960000     -0.02520000     27.69600000    -13.34500000     -4.46700000
      2.47140000     65.68880000      0.06980000     28.52800000    -12.68900000     -4.21000000
      2.47140000     65.68880000      0.06980000     27.40400000    -13.92200000     -3.59000000
      3.39970000    359.82400000      0.59730000     28.14500000    -14.31200000     -5.57500000
      2.95990000    878.64000000     -0.56790000     29.18900000    -14.97100000     -5.43900000
      3.25000000    711.28000000     -0.41570000     27.41000000    -14.39200000     -6.68000000
      1.06910000     65.68880000      0.27190000     26.57600000    -13.83700000     -6.80700000
      3.39970000    457.72960000     -0.05180000     27.82500000    -15.27700000     -7.76600000
      2.47140000     65.68880000      0.09220000     28.26300000    -16.19500000     -7.37500000
      3.39970000    457.72960000     -0.11020000     26.61400000    -15.63000000     -8.56800000
      2.64950000     65.68880000      0.04570000     26.22900000    -14.68900000     -8.96100000
      2.64950000     65.68880000      0.04570000     26.97700000    -16.24500000     -9.39100000
      3.39970000    457.72960000      0.35310000     25.50800000    -16.36300000     -7.84100000
      2.64950000     65.68880000     -0.03610000     25.14400000    -15.78000000     -6.99500000
      3.39970000    457.72960000     -0.41210000     24.39900000    -16.55100000     -8.83200000
      2.64950000     65.68880000      0.10000000     24.76200000    -17.13400000     -9.67800000
      2.64950000     65.68880000      0.10000000     23.57200000    -17.07800000     -8.35700000
      2.64950000     65.68880000      0.10000000     24.05600000    -15.57800000     -9.18300000
      3.39970000    457.72960000     -0.41210000     26.00300000    -17.71700000     -7.34000000
      2.64950000     65.68880000      0.10000000     26.83800000    -17.56900000     -6.65600000
      2.64950000     65.68880000      0.10000000     25.19400000    -18.23000000     -6.82000000
      2.64950000     65.68880000      0.10000000     26.33000000    -18.32100000     -8.18600000
      3.39970000    359.82400000      0.59730000     28.83200000    -14.52400000     -8.67500000
      2.95990000    878.64000000     -0.56790000     28.59300000    -13.33100000     -8.94900000
      3.25000000    711.28000000     -0.25480000     29.92900000    -15.16800000     -9.09200000
      3.39970000    457.72960000      0.01920000     30.40500000    -16.52600000     -8.79100000
      2.47140000     65.68880000      0.03910000     29.56800000    -17.22300000     -8.82100000
      2.47140000     65.68880000      0.03910000     30.85800000    -16.54500000     -7.80000000
      3.39970000    457.72960000      0.01890000     31.40700000    -16.77900000     -9.88400000
      2.64950000     65.68880000      0.02130000     30.90500000    -17.25300000    -10.72700000
      2.64950000     65.68880000      0.02130000     32.18800000    -17.44000000     -9.50800000
      3.39970000    457.72960000     -0.00700000     31.97700000    -15.43700000    -10.26700000
      2.64950000     65.68880000      0.02530000     32.20700000    -15.41600000    -11.33200000
      2.64950000     65.68880000      0.02530000     32.87500000    -15.19800000     -9.69700000
      3.39970000    457.72960000     -0.02660000     30.87500000    -14.42500000     -9.95300000
      2.47140000     65.68880000      0.06410000     31.28900000    -13.60300000     -9.37000000
      3.39970000    359.82400000      0.58960000     30.19800000    -13.86700000    -11.21600000
      2.95990000    878.64000000     -0.57480000     29.67900000    -14.59900000    -12.06800000
      3.25000000    711.28000000     -0.41570000     30.18000000    -12.54100000    -11.32400000
      1.06910000     65.68880000      0.27190000     30.51200000    -11.97200000    -10.55900000
      3.39970000    457.72960000     -0.05970000     29.46500000    -11.88100000    -12.42400000
      2.47140000     65.68880000      0.08690000     28.48900000    -12.31600000    -12.64100000
      3.39970000    457.72960000      0.13030000     29.30600000    -10.32000000    -12.18200000
      2.64950000     65.68880000      0.01870000     28.38100000    -10.15800000    -11.62800000
      3.39970000    457.72960000     -0.32040000     30.48400000     -9.72400000    -11.39700000
      2.64950000     65.68880000      0.08820000     31.40900000     -9.88500000    -11.95100000
      2.64950000     65.68880000      0.08820000     30.32500000     -8.65400000    -11.25900000
      2.64950000     65.68880000      0.08820000     30.55500000    -10.20900000    -10.42300000
      3.39970000    457.72960000     -0.04300000     29.03400000     -9.55300000    -13.50600000
      2.64950000     65.68880000      0.02360000     29.62000000     -8.63400000    -13.47400000
      2.64950000     65.68880000      0.02360000     29.38800000    -10.18200000    -14.32300000
      3.39970000    457.72960000     -0.06600000     27.57000000     -9.21200000    -13.72800000
      2.64950000     65.68880000      0.01860000     27.21500000     -8.58300000    -12.91200000
      2.64950000     65.68880000      0.01860000     27.46000000     -8.67800000    -14.67200000
      2.64950000     65.68880000      0.01860000     26.98300000    -10.13000000    -13.76000000
      3.39970000    359.82400000      0.59730000     30.04100000    -12.28200000    -13.79600000
      2.95990000    878.64000000     -0.56790000     29.30600000    -12.36500000    -14.78000000
      3.25000000    711.28000000     -0.41570000     31.32600000    -12.58800000    -13.87400000
      1.06910000     65.68880000      0.27190000     31.94800000    -12.49800000    -13.08300000
      3.39970000    457.72960000      0.03370000     31.88800000    -12.97000000    -15.14600000
      2.47140000     65.68880000      0.08230000     31.61500000    -12.19300000    -15.86000000
      3.39970000    457.72960000     -0.18250000     33.41700000    -13.05000000    -15.07000000
      2.64950000     65.68880000      0.06030000     33.70600000    -13.83000000    -14.36600000
      2.64950000     65.68880000      0.06030000     33.81900000    -13.28400000    -16.05600000
      2.64950000     65.68880000      0.06030000     33.81500000    -12.09300000    -14.73400000
      3.39970000    359.82400000      0.59730000     31.29300000    -14.30200000    -15.66800000
      2.95990000    878.64000000     -0.56790000     31.34300000    -14.54500000    -16.87100000
      3.25000000    711.28000000     -0.41570000     30.79400000    -15.15500000    -14.78000000
      1.06910000     65.68880000      0.27190000     30.75000000    -14.87200000    -13.81100000
      3.39970000    457.72960000     -0.05180000     30.34700000    -16.51700000    -15.13200000
      2.47140000     65.68880000      0.09220000     30.74700000    -16.79700000    -16.10700000
      3.39970000    457.72960000     -0.11020000     30.83800000    -17.52000000    -14.09800000
      2.64950000     65.68880000      0.04570000     30.34000000    -17.20400000    -13.18200000
      2.64950000     65.68880000      0.04570000     30.51200000    -18.52700000    -14.36000000
      3.39970000    457.72960000      0.35310000     32.36000000    -17.51500000    -13.88100000
      2.64950000     65.68880000     -0.03610000     32.64500000    -16.52300000    -13.53100000
      3.39970000    457.72960000     -0.41210000     32.80900000    -18.55300000    -12.87400000
      2.64950000     65.68880000      0.10000000     32.52500000    -19.54600000    -13.22300000
      2.64950000     65.68880000      0.10000000     33.89200000    -18.50500000    -12.76000000
      2.64950000     65.68880000      0.10000000     32.33400000    -18.35700000    -11.91300000
      3.39970000    457.72960000     -0.41210000     33.11100000    -17.69600000    -15.19000000
      2.64950000     65.68880000      0.10000000     32.85800000    -16.88300000    -15.87000000
      2.64950000     65.68880000      0.10000000     34.18400000    -17.68700000    -14.99800000
      2.64950000     65.68880000      0.10000000     32.83100000    -18.64800000    -15.64200000
      3.39970000    359.82400000      0.59730000     28.86200000    -16.59800000    -15.24600000
      2.95990000    878.64000000     -0.56790000     28.32300000    -17.48000000    -15.83400000
      3.25000000    711.28000000     -0.41570000     28.18300000    -15.62600000    -14.70100000
      1.06910000     65.68880000      0.27190000     28.64000000    -14.80500000    -14.33100000
      3.39970000    457.72960000     -0.02750000     26.74400000    -15.73000000    -14.56700000
      2.47140000     65.68880000      0.11230000     26.38000000    -16.60600000    -15.10400000
      3.39970000    457.72960000     -0.00500000     26.37500000    -15.86700000    -13.12500000
      2.64950000     65.68880000      0.03390000     26.83500000    -15.12400000    -12.47300000
      2.64950000     65.68880000      0.03390000     25.30000000    -15.69200000    -13.17300000
      3.39970000    359.82400000     -0.14150000     26.55700000    -17.15400000    -12.48100000
      3.39970000    359.82400000     -0.16380000     27.59400000    -17.51400000    -11.67200000
      2.51060000     62.76000000      0.20620000     28.42000000    -16.81200000    -11.56300000
      3.25000000    711.28000000     -0.34180000     27.34800000    -18.75000000    -11.14900000
      1.06910000     65.68880000      0.34120000     27.99400000    -19.28800000    -10.58900000
      3.39970000    359.82400000      0.13800000     26.11700000    -19.18600000    -11.59200000
      3.39970000    359.82400000     -0.26010000     25.46900000    -20.41300000    -11.37000000
      2.59960000     62.76000000      0.15720000     25.95300000    -21.13000000    -10.70700000
      3.39970000    359.82400000     -0.11340000     24.29100000    -20.63300000    -11.98600000
      2.59960000     62.76000000      0.14170000     23.75900000    -21.56800000    -11.80800000
      3.39970000    359.82400000     -0.19720000     23.73500000    -19.69500000    -12.84500000
      2.59960000     62.76000000      0.14470000     22.79700000    -19.88000000    -13.36900000
      3.39970000    359.82400000     -0.23870000     24.38400000    -18.45900000    -13.06300000
      2.59960000     62.76000000      0.17000000     23.93500000    -17.76100000    -13.77000000
      3.39970000    359.82400000      0.12430000     25.60300000    -18.21800000    -12.42700000
      3.39970000    359.82400000      0.59730000     25.97300000    -14.54300000    -15.16200000
      2.95990000    878.64000000     -0.56790000     24.83000000    -14.39800000    -14.86000000
      3.25000000    711.28000000     -0.38210000     26.63100000    -13.65500000    -15.89000000
      1.06910000     65.68880000      0.26810000     27.58100000    -13.40400000    -15.65600000
      3.39970000    457.72960000     -0.27220000     26.00900000    -13.00300000    -17.02200000
      2.47140000     65.68880000      0.13040000     25.06900000    -12.52000000    -16.75300000
      3.39970000    457.72960000      0.11230000     26.99900000    -11.92800000    -17.47400000
      2.47140000     65.68880000      0.08130000     27.89800000    -12.36200000    -17.91100000
      2.47140000     65.68880000      0.08130000     26.54900000    -11.23400000    -18.18400000
      3.06650000    880.31360000     -0.65140000     27.34100000    -11.23000000    -16.27900000
      1.24730000     41.84000000      0.44740000     27.96700000    -10.53100000    -16.48400000
      3.39970000    359.82400000      0.81130000     25.74300000    -14.08300000    -18.12200000
      2.95990000    878.64000000     -0.81320000     25.80700000    -13.84600000    -19.33600000
      2.95990000    878.64000000     -0.81320000     25.35700000    -15.20800000    -17.81100000
      3.25000000    711.28000000      0.29430000     -8.19900000    -26.92800000    -13.06100000
      1.06910000     65.68880000      0.16420000     -7.34100000    -26.63500000    -12.61500000
      1.06910000     65.68880000      0.16420000     -7.97200000    -27.54800000    -13.82600000
      1.06910000     65.68880000      0.16420000     -8.85100000    -27.22300000    -12.34800000
      3.39970000    457.72960000     -0.01000000     -8.82600000    -25.72500000    -13.69900000
      1.96000000     65.68880000      0.08950000     -8.92300000    -25.94800000    -14.76100000
      1.96000000     65.68880000      0.08950000     -9.81700000    -25.61700000    -13.25900000
      3.39970000    359.82400000      0.61630000     -8.07000000    -24.42200000    -13.53600000
      2.95990000    878.64000000     -0.57220000     -7.33100000    -24.23200000    -12.56200000
      3.25000000    711.28000000     -0.25480000     -8.25200000    -23.49800000    -14.49000000
      3.39970000    457.72960000      0.01920000     -9.25500000    -23.54500000    -15.55500000
      2.47140000     65.68880000      0.03910000    -10.22900000    -23.78800000    -15.13000000
      2.47140000     65.68880000      0.03910000     -8.97800000    -24.30500000    -16.28500000
      3.39970000    457.72960000      0.01890000     -9.20700000    -22.17700000    -16.11900000
      2.64950000     65.68880000      0.02130000    -10.15500000    -21.68800000    -15.89600000
      2.64950000     65.68880000      0.02130000     -9.08800000    -22.26200000    -17.19900000
      3.39970000    457.72960000     -0.00700000     -8.07200000    -21.44900000    -15.52000000
      2.64950000     65.68880000      0.02530000     -8.47100000    -20.45200000    -15.33300000
      2.64950000     65.68880000      0.02530000     -7.14100000    -21.36800000    -16.08100000
      3.39970000    457.72960000     -0.02660000     -7.82700000    -22.15100000    -14.22200000
      2.47140000     65.68880000      0.06410000     -6.81700000    -22.15400000    -13.81300000
      3.39970000    359.82400000      0.58960000     -8.79200000    -21.52600000    -13.19800000
      2.95990000    878.64000000     -0.57480000     -9.99500000    -21.88800000    -13.15600000
      3.25000000    711.28000000     -0.41570000     -8.27400000    -20.60600000    -12.42100000
      1.06910000     65.68880000      0.27190000     -7.31500000    -20.30800000    -12.52600000
      3.39970000    457.72960000     -0.02490000     -9.04700000    -20.05100000    -11.34200000
      2.47140000     65.68880000      0.08430000    -10.07800000    -20.39500000    -11.42700000
      3.39970000    457.72960000      0.21170000     -8.49900000    -20.47500000     -9.96900000
      2.47140000     65.68880000      0.03520000     -7.47400000    -20.12600000     -9.84800000
      2.47140000     65.68880000      0.03520000     -9.11900000    -20.06400000     -9.17200000
      3.06650000    880.31360000     -0.65460000     -8.52600000    -21.87300000     -9.90700000
      1.24730000     41.84000000      0.42750000     -8.18800000    -22.16200000     -9.05600000
      3.39970000    359.82400000      0.59730000     -9.15600000    -18.55000000    -11.36200000
      2.95990000    878.64000000     -0.56790000     -8.48500000    -17.85200000    -10.55800000
      3.25000000    711.28000000     -0.25480000     -9.94700000    -18.02300000    -12.31500000
      3.39970000    457.72960000      0.01920000    -10.94600000    -18.70600000    -13.15000000
      2.47140000     65.68880000      0.03910000    -11.70300000    -19.14600000    -12.50100000
      2.47140000     65.68880000      0.03910000    -10.44900000    -19.49500000    -13.71500000
      3.39970000    457.72960000      0.01890000    -11.50300000    -17.62900000    -14.03700000
      2.64950000     65.68880000      0.02130000    -12.57500000    -17.56800000    -13.84800000
      2.64950000     65.68880000      0.02130000    -11.33300000    -17.93200000    -15.07000000
      3.39970000    457.72960000     -0.00700000    -10.82500000    -16.33700000    -13.74400000
      2.64950000     65.68880000      0.02530000    -11.63300000    -15.64700000    -13.50200000
      2.64950000     65.68880000      0.02530000    -10.22300000    -15.92200000    -14.55200000
      3.39970000    457.72960000     -0.02660000     -9.94000000    -16.57200000    -12.49300000
      2.47140000     65.68880000      0.06410000     -8.92100000    -16.21300000    -12.63500000
      3.39970000    359.82400000      0.58960000    -10.54000000    -15.93200000    -11.21100000
      2.95990000    878.64000000     -0.57480000    -11.50100000    -16.45200000    -10.66500000
      3.25000000    711.28000000     -0.41570000     -9.95000000    -14.83200000    -10.74600000
      1.06910000     65.68880000      0.27190000     -9.07800000    -14.50600000    -11.13700000
      3.39970000    457.72960000      0.01430000    -10.51500000    -14.10400000     -9.56800000
      2.47140000     65.68880000      0.10480000    -11.12600000    -14.78300000     -8.97300000
      3.39970000    457.72960000     -0.20410000     -9.40000000    -13.56100000     -8.69200000
      2.64950000     65.68880000      0.07970000     -8.77500000    -14.41800000     -8.44200000
      2.64950000     65.68880000      0.07970000     -8.79600000    -12.80600000     -9.19600000
      3.39970000    359.82400000      0.71300000     -9.94400000    -12.96800000     -7.40800000
      2.95990000    878.64000000     -0.59310000    -11.11900000    -12.72200000     -7.30200000
      3.25000000    711.28000000     -0.91910000     -9.08300000    -12.66600000     -6.48800000
      1.06910000     65.68880000      0.41960000     -9.40000000    -12.26800000     -5.61500000
      1.06910000     65.68880000      0.41960000     -8.09900000    -12.83000000     -6.64800000
      3.39970000    359.82400000      0.59730000    -11.43800000    -13.03100000    -10.13700000
      2.95990000    878.64000000     -0.56790000    -11.05600000    -11.93200000    -10.41900000
      3.25000000    711.28000000     -0.41570000    -12.68100000    -13.41400000    -10.34500000
      1.06910000     65.68880000      0.27190000    -12.93400000    -14.37400000    -10.15800000
      3.39970000    457.72960000     -0.02750000    -13.70900000    -12.51400000    -10.84500000
      2.47140000     65.68880000      0.11230000    -13.31800000    -11.98500000    -11.71400000
      3.39970000    457.72960000     -0.00500000    -14.96500000    -13.23500000    -11.24700000
      2.64950000     65.68880000      0.03390000    -15.33200000    -13.88100000    -10.45000000
      2.64950000     65.68880000      0.03390000    -15.74500000    -12.52800000    -11.53000000
      3.39970000    359.82400000     -0.14150000    -14.72400000    -14.13900000    -12.47200000
      3.39970000    359.82400000     -0.16380000    -14.74500000    -15.50100000    -12.48900000
      2.51060000     62.76000000      0.20620000    -14.91100000    -16.01000000    -11.54000000
      3.25000000    711.28000000     -0.34180000    -14.53900000    -15.95700000    -13.78600000
      1.06910000     65.68880000      0.34120000    -14.54100000    -16.92300000    -14.08100000
      3.39970000    359.82400000      0.13800000    -14.32300000    -14.87200000    -14.60500000
      3.39970000    359.82400000     -0.26010000    -14.02800000    -14.81300000    -15.95800000
      2.59960000     62.76000000      0.15720000    -13.92900000    -15.75500000    -16.49800000
      3.39970000    359.82400000     -0.11340000    -13.87900000    -13.58600000    -16.53200000
      2.59960000     62.76000000      0.14170000    -13.65400000    -13.51100000    -17.59600000
      3.39970000    359.82400000     -0.19720000    -14.01000000    -12.40200000    -15.77600000
      2.59960000     62.76000000      0.14470000    -13.91500000    -11.42100000    -16.24200000
      3.39970000    359.82400000     -0.23870000    -14.26400000    -12.45400000    -14.41200000
      2.59960000     62.76000000      0.17000000    -14.29000000    -11.51800000    -13.85300000
      3.39970000    359.82400000      0.12430000    -14.44600000    -13.71200000    -13.80900000
      3.39970000    359.82400000      0.59730000    -14.10400000    -11.46400000     -9.77900000
      2.95990000    878.64000000     -0.56790000    -14.55700000    -10.36300000    -10.13400000
      3.25000000    711.28000000     -0.51630000    -13.87200000    -11.74900000     -8.51400000
      1.06910000     65.68880000      0.29360000    -13.62300000    -12.67400000     -8.19300000
      3.39970000    457.72960000      0.03810000    -14.06900000    -10.66900000     -7.48900000
      2.47140000     65.68880000      0.08800000    -15.04800000    -10.20200000     -7.59300000
      3.39970000    457.72960000     -0.03030000    -13.97900000    -11.33300000     -6.07500000
      2.64950000     65.68880000     -0.01220000    -13.02000000    -11.80100000     -5.85000000
      2.64950000     65.68880000     -0.01220000    -14.14600000    -10.50100000     -5.39100000
      3.39970000    359.82400000      0.79940000    -15.09100000    -12.35400000     -5.91000000
      2.95990000    878.64000000     -0.80140000    -16.27100000    -11.89800000     -5.91100000
      2.95990000    878.64000000     -0.80140000    -14.80400000    -13.57700000     -5.91600000
      3.39970000    359.82400000      0.53660000    -13.08100000     -9.56900000     -7.66500000
      2.95990000    878.64000000     -0.58190000    -13.41700000     -8.40300000     -7.53900000
      3.25000000    711.28000000     -0.41570000    -11.82900000     -9.93600000     -7.98600000
      1.06910000     65.68880000      0.27190000    -11.50900000    -10.88500000     -7.85400000
      3.39970000    457.72960000      0.03370000    -10.83200000     -8.90400000     -8.36000000
      2.47140000     65.68880000      0.08230000    -10.87200000     -8.19900000     -7.52900000
      3.39970000    457.72960000     -0.18250000     -9.41000000     -9.53000000     -8.41300000
      2.64950000     65.68880000      0.06030000     -9.35200000    -10.23100000     -9.24500000
      2.64950000     65.68880000      0.06030000     -8.67000000     -8.74100000     -8.55100000
      2.64950000     65.68880000      0.06030000     -9.20900000    -10.05700000     -7.48000000
      3.39970000    359.82400000      0.59730000    -11.16800000     -8.11100000     -9.60900000
      2.95990000    878.64000000     -0.56790000    -10.96900000     -6.88500000     -9.61900000
      3.25000000    711.28000000     -0.41570000    -11.68700000     -8.77000000    -10.65400000
      1.06910000     65.68880000      0.27190000    -11.77100000     -9.77600000    -10.61100000
      3.39970000    457.72960000     -0.08750000    -12.07000000     -8.11000000    -11.85900000
      2.47140000     65.68880000      0.09690000    -11.28200000     -7.44500000    -12.21300000
      3.39970000    457.72960000      0.29850000    -12.42800000     -9.08900000    -12.98500000
      2.64950000     65.68880000     -0.02970000    -13.22000000     -9.75600000    -12.64500000
      3.39970000    457.72960000     -0.31920000    -12.90800000     -8.31200000    -14.21700000
      2.64950000     65.68880000      0.07910000    -12.11600000     -7.64500000    -14.55800000
      2.64950000     65.68880000      0.07910000    -13.16100000     -9.01200000    -15.01300000
      2.64950000     65.68880000      0.07910000    -13.78900000     -7.72500000    -13.95700000
      3.39970000    457.72960000     -0.31920000    -11.28000000     -9.98700000    -13.34600000
      2.64950000     65.68880000      0.07910000    -10.98600000    -10.57000000    -12.47300000
      2.64950000     65.68880000      0.07910000    -11.58300000    -10.66100000    -14.14700000
      2.64950000     65.68880000      0.07910000    -10.43700000     -9.38300000    -13.68000000
      3.39970000    359.82400000      0.59730000    -13.29000000     -7.15300000    -11.53700000
      2.95990000    878.64000000     -0.56790000    -13.31900000     -5.99100000    -11.99700000
      3.25000000    711.28000000     -0.41570000    -14.20900000     -7.61700000    -10.71400000
      1.06910000     65.68880000      0.27190000    -14.19100000     -8.57800000    -10.40300000
      3.39970000    457.72960000      0.03370000    -15.37000000     -6.76700000    -10.31800000
      2.47140000     65.68880000      0.08230000    -15.79000000     -6.38300000    -11.24800000
      3.39970000    457.72960000     -0.18250000    -16.42100000     -7.56500000     -9.61300000
      2.64950000     65.68880000      0.06030000    -16.01900000     -7.94900000     -8.67600000
      2.64950000     65.68880000      0.06030000    -17.28200000     -6.93000000     -9.40500000
      2.64950000     65.68880000      0.06030000    -16.72900000     -8.39900000    -10.24400000
      3.39970000    359.82400000      0.59730000    -14.95000000     -5.57300000     -9.49300000
      2.95990000    878.64000000     -0.56790000    -15.55300000     -4.49900000     -9.63700000
      3.25000000    711.28000000     -0.41570000    -13.93100000     -5.71100000     -8.65200000
      1.06910000     65.68880000      0.27190000    -13.50900000     -6.61600000     -8.50000000
      3.39970000    457.72960000     -0.00310000    -13.39900000     -4.53700000     -7.87600000
      2.47140000     65.68880000      0.08500000    -14.19300000     -4.10100000     -7.27000000
      3.39970000    457.72960000     -0.00360000    -12.24600000     -4.99300000     -6.93200000
      2.64950000     65.68880000      0.01710000    -12.70800000     -5.63800000     -6.18500000
      2.64950000     65.68880000      0.01710000    -11.56800000     -5.58200000     -7.55000000
      3.39970000    457.72960000     -0.06450000    -11.46500000     -3.88600000     -6.23400000
      2.64950000     65.68880000      0.03520000    -10.79600000     -4.42000000     -5.55900000
      2.64950000     65.68880000      0.03520000    -10.87700000     -3.28000000     -6.92300000
      3.39970000    359.82400000      0.69510000    -12.34600000     -2.96900000     -5.41500000
      2.95990000    878.64000000     -0.60860000    -13.34200000     -3.41400000     -4.83800000
      3.25000000    711.28000000     -0.94070000    -12.05900000     -1.69900000     -5.45500000
      1.06910000     65.68880000      0.42510000    -12.61500000     -1.04200000     -4.92700000
      1.06910000     65.68880000      0.42510000    -11.28200000     -1.37700000     -6.01400000
      3.39970000    359.82400000      0.59730000    -12.90200000     -3.47400000     -8.88200000
      2.95990000    878.64000000     -0.56790000    -13.18800000     -2.28900000     -8.77800000
      3.25000000    711.28000000     -0.41570000    -12.16300000     -3.92300000     -9.92400000
      1.06910000     65.68880000      0.27190000    -11.85500000     -4.88100000    -10.01100000
      3.39970000    457.72960000      0.02130000    -11.69900000     -2.95000000    -10.92000000
      2.47140000     65.68880000      0.11240000    -11.27800000     -2.09000000    -10.39900000
      3.39970000    457.72960000     -0.12310000    -10.63100000     -3.52600000    -11.85800000
      2.47140000     65.68880000      0.11120000    -11.03100000     -4.25800000    -12.55900000
      2.47140000     65.68880000      0.11120000    -10.08800000     -2.75700000    -12.40700000
      3.53240000   1181.56160000     -0.31190000     -9.41800000     -4.38600000    -10.88700000
      1.08900000     51.88160000      0.19330000     -8.65800000     -4.76000000    -11.91300000
      3.39970000    359.82400000      0.59730000    -12.80400000     -2.34500000    -11.75600000
      2.95990000    878.64000000     -0.56790000    -12.70700000     -1.13800000    -12.05400000
      3.25000000    711.28000000     -0.51630000    -13.80200000     -3.13100000    -12.15100000
      1.06910000     65.68880000      0.29360000    -13.85800000     -4.06400000    -11.76700000
      3.39970000    457.72960000      0.03970000    -14.81400000     -2.71600000    -13.08100000
      2.47140000     65.68880000      0.11050000    -14.34600000     -2.12600000    -13.87000000
      3.39970000    457.72960000      0.05600000    -15.55000000     -3.91600000    -13.73000000
      2.64950000     65.68880000     -0.01730000    -15.74400000     -4.61500000    -12.91600000
      2.64950000     65.68880000     -0.01730000    -16.49500000     -3.51500000    -14.09700000
      3.39970000    457.72960000      0.01360000    -14.84000000     -4.63400000    -14.85000000
      2.64950000     65.68880000     -0.04250000    -13.91000000     -4.98900000    -14.40700000
      2.64950000     65.68880000     -0.04250000    -15.45200000     -5.48700000    -15.14200000
      3.39970000    359.82400000      0.80540000    -14.52700000     -3.78900000    -16.08000000
      2.95990000    878.64000000     -0.81880000    -15.06700000     -2.69300000    -16.25300000
      2.95990000    878.64000000     -0.81880000    -13.74100000     -4.24700000    -16.92800000
      3.39970000    359.82400000      0.53660000    -15.92800000     -1.86400000    -12.44800000
      2.95990000    878.64000000     -0.58190000    -16.31400000     -0.86800000    -13.04900000
      3.25000000    711.28000000     -0.41570000    -16.29100000     -2.17800000    -11.23300000
      1.06910000     65.68880000      0.27190000    -15.77900000     -2.88600000    -10.72600000
      3.39970000    457.72960000     -0.02490000    -17.48400000     -1.54400000    -10.56600000
      2.47140000     65.68880000      0.08430000    -17.81300000     -0.66100000    -11.11400000
      3.39970000    457.72960000      0.21170000    -18.59900000     -2.54300000    -10.55400000
      2.47140000     65.68880000      0.03520000    -19.48300000     -2.02700000    -10.18000000
      2.47140000     65.68880000      0.03520000    -18.76500000     -2.84600000    -11.58800000
      3.06650000    880.31360000     -0.65460000    -18.34100000     -3.73600000     -9.72900000
      1.24730000     41.84000000      0.42750000    -19.09800000     -4.32500000     -9.77300000
      3.39970000    359.82400000      0.59730000    -17.18800000     -1.07900000     -9.14600000
      2.95990000    878.64000000     -0.56790000    -18.10100000     -0.72300000     -8.43300000
      3.25000000    711.28000000     -0.41570000    -15.95000000     -1.27300000     -8.63200000
      1.06910000     65.68880000      0.27190000    -15.18100000     -1.53400000     -9.23300000
      3.39970000    457.72960000     -0.02520000    -15.69300000     -1.11500000     -7.22500000
      2.47140000     65.68880000      0.06980000    -14.61300000     -1.08900000     -7.08200000
      2.47140000     65.68880000      0.06980000    -16.12400000     -0.16500000     -6.90900000
      3.39970000    359.82400000      0.59730000    -16.27100000     -2.21800000     -6.38400000
      2.95990000    878.64000000     -0.56790000    -16.58900000     -1.96300000     -5.20700000
      3.25000000    711.28000000     -0.41570000    -16.55500000     -3.40300000     -6.94700000
      1.06910000     65.68880000      0.27190000    -16.36000000     -3.55000000     -7.92700000
      3.39970000    457.72960000     -0.02520000    -17.13300000     -4.48300000     -6.19900000
      2.47140000     65.68880000      0.06980000    -16.86800000     -5.39800000     -6.73000000
      2.47140000     65.68880000      0.06980000    -16.64500000     -4.47400000     -5.22400000
      3.39970000    359.82400000      0.59730000    -18.67000000     -4.44600000     -5.99400000
      2.95990000    878.64000000     -0.56790000    -19.18800000     -4.96700000     -5.02200000
      3.25000000    711.28000000     -0.41570000    -19.39000000     -3.79600000     -6.88800000
      1.06910000     65.68880000      0.27190000    -18.95000000     -3.40600000     -7.71000000
      3.39970000    457.72960000      0.01430000    -20.81800000     -3.60700000     -6.71700000
      2.47140000     65.68880000      0.10480000    -21.09200000     -3.89800000     -5.70300000
      3.39970000    457.72960000     -0.20410000    -21.24000000     -2.18400000     -6.93800000
      2.64950000     65.68880000      0.07970000    -20.75500000     -1.54100000     -6.20400000
      2.64950000     65.68880000      0.07970000    -20.92700000     -1.89100000     -7.94000000
      3.39970000    359.82400000      0.71300000    -22.75900000     -1.99800000     -6.82500000
      2.95990000    878.64000000     -0.59310000    -23.49300000     -2.88900000     -6.45000000
      3.25000000    711.28000000     -0.91910000    -23.21700000     -0.78700000     -7.14700000
      1.06910000     65.68880000      0.41960000    -24.20700000     -0.59500000     -7.09500000
      1.06910000     65.68880000      0.41960000    -22.57100000     -0.06800000     -7.44100000
      3.39970000    359.82400000      0.59730000    -21.52300000     -4.53800000     -7.75200000
      2.95990000    878.64000000     -0.56790000    -21.65100000     -4.12600000     -8.93600000
      3.25000000    711.28000000     -0.41570000    -21.92100000     -5.70700000     -7.27400000
      1.06910000     65.68880000      0.27190000    -21.73100000     -5.95000000     -6.31200000
      3.39970000    457.72960000     -0.02750000    -22.51800000     -6.73200000     -8.14900000
      2.47140000     65.68880000      0.11230000    -21.90000000     -6.85900000     -9.03800000
      3.39970000    457.72960000     -0.00500000    -22.61600000     -8.05500000     -7.43900000
      2.64950000     65.68880000      0.03390000    -22.97500000     -7.73300000     -6.46100000
      2.64950000     65.68880000      0.03390000    -23.27200000     -8.83400000     -7.82800000
      3.39970000    359.82400000     -0.14150000    -21.31400000     -8.67500000     -7.22200000
      3.39970000    359.82400000     -0.16380000    -20.53400000     -8.56100000     -6.09300000
      2.51060000     62.76000000      0.20620000    -20.96800000     -8.02900000     -5.24600000
      3.25000000    711.28000000     -0.34180000    -19.31900000     -9.17400000     -6.29300000
      1.06910000     65.68880000      0.34120000    -18.63400000     -9.37800000     -5.57900000
      3.39970000    359.82400000      0.13800000    -19.25900000     -9.59900000     -7.61200000
      3.39970000    359.82400000     -0.26010000    -18.28900000    -10.29500000     -8.25200000
      2.59960000     62.76000000      0.15720000    -17.37700000    -10.52500000     -7.70100000
      3.39970000    359.82400000     -0.11340000    -18.51500000    -10.67100000     -9.56400000
      2.59960000     62.76000000      0.14170000    -17.76300000    -11.24600000    -10.10500000
      3.39970000    359.82400000     -0.19720000    -19.67900000    -10.33100000    -10.20400000
      2.59960000     62.76000000      0.14470000    -19.84900000    -10.58500000    -11.25000000
      3.39970000    359.82400000     -0.23870000    -20.66700000     -9.65600000     -9.53700000
      2.59960000     62.76000000      0.17000000    -21.56300000     -9.39700000    -10.10100000
      3.39970000    359.82400000      0.12430000    -20.48900000     -9.31700000     -8.21600000
      3.39970000    359.82400000      0.59730000    -23.86900000     -6.25400000     -8.71300000
      2.95990000    878.64000000     -0.56790000    -24.29600000     -6.73900000     -9.72100000
      3.25000000    711.28000000     -0.41570000    -24.49600000     -5.24700000     -8.07200000
      1.06910000     65.68880000      0.27190000    -24.13900000     -4.96200000     -7.17100000
      3.39970000    457.72960000      0.03370000    -25.76200000     -4.63600000     -8.55400000
      2.47140000     65.68880000      0.08230000    -26.16700000     -5.34900000     -9.27200000
      3.39970000    457.72960000     -0.18250000    -26.75100000     -4.49400000     -7.39400000
      2.64950000     65.68880000      0.06030000    -26.36300000     -3.77600000     -6.67100000
      2.64950000     65.68880000      0.06030000    -27.71000000     -4.14400000     -7.77500000
      2.64950000     65.68880000      0.06030000    -26.88400000     -5.46100000     -6.90900000
      3.39970000    359.82400000      0.59730000    -25.57000000     -3.31100000     -9.30800000
      2.95990000    878.64000000     -0.56790000    -26.53400000     -2.62400000     -9.57800000
      3.25000000    711.28000000     -0.41570000    -24.33700000     -2.97200000     -9.75500000
      1.06910000     65.68880000      0.27190000    -23.55200000     -3.57700000     -9.56000000
      3.39970000    457.72960000      0.03370000    -24.08000000     -1.68900000    -10.46600000
      2.47140000     65.68880000      0.08230000    -24.29900000     -0.89800000     -9.74900000
      3.39970000    457.72960000     -0.18250000    -22.64600000     -1.58000000    -10.87400000
      2.64950000     65.68880000      0.06030000    -22.41400000     -2.36000000    -11.59900000
      2.64950000     65.68880000      0.06030000    -22.46900000     -0.60300000    -11.32300000
      2.64950000     65.68880000      0.06030000    -22.00800000     -1.69800000     -9.99800000
      3.39970000    359.82400000      0.59730000    -24.96400000     -1.47400000    -11.69400000
      2.95990000    878.64000000     -0.56790000    -25.07200000     -2.32900000    -12.58400000
      3.25000000    711.28000000     -0.41570000    -25.65000000     -0.34200000    -11.69300000
      1.06910000     65.68880000      0.27190000    -25.61900000      0.26100000    -10.88300000
      3.39970000    457.72960000      0.01430000    -26.49300000      0.04100000    -12.79800000
      2.47140000     65.68880000      0.10480000    -26.01500000     -0.27600000    -13.72500000
      3.39970000    457.72960000     -0.20410000    -27.88100000     -0.58000000    -12.72900000
      2.64950000     65.68880000      0.07970000    -27.80200000     -1.66500000    -12.66700000
      2.64950000     65.68880000      0.07970000    -28.37700000     -0.20000000    -11.83600000
      3.39970000    359.82400000      0.71300000    -28.73100000     -0.22000000    -13.95100000
      2.95990000    878.64000000     -0.59310000    -28.27600000      0.41600000    -14.91700000
      3.25000000    711.28000000     -0.91910000    -29.99400000     -0.66000000    -13.92100000
      1.06910000     65.68880000      0.41960000    -30.61400000     -0.46000000    -14.69300000
      1.06910000     65.68880000      0.41960000    -30.32200000     -1.19000000    -13.12600000
      3.39970000    359.82400000      0.59730000    -26.56000000      1.56200000    -12.77400000
      2.95990000    878.64000000     -0.56790000    -27.53700000      2.14600000    -12.35800000
      3.25000000    711.28000000     -0.41570000    -25.50800000      2.18500000    -13.24900000
      1.06910000     65.68880000      0.27190000    -24.78100000      1.66800000    -13.72300000
      3.39970000    457.72960000     -0.03890000    -25.35000000      3.58400000    -13.10300000
      2.47140000     65.68880000      0.10070000    -25.93000000      3.94700000    -12.25500000
      3.39970000    457.72960000      0.36540000    -23.86600000      3.93400000    -12.87100000
      2.47140000     65.68880000      0.00430000    -23.76800000      5.01500000    -12.77600000
      3.39970000    457.72960000     -0.24380000    -23.35400000      3.26800000    -11.60900000
      2.64950000     65.68880000      0.06420000    -23.45200000      2.18600000    -11.70300000
      2.64950000     65.68880000      0.06420000    -22.30500000      3.52600000    -11.46100000
      2.64950000     65.68880000      0.06420000    -23.93600000      3.61200000    -10.75400000
      3.06650000    880.31360000     -0.67610000    -23.06700000      3.50800000    -13.97500000
      1.24730000     41.84000000      0.41020000    -22.14900000      3.73500000    -13.81200000
      3.39970000    359.82400000      0.59730000    -25.83100000      4.38600000    -14.33200000
      2.95990000    878.64000000     -0.56790000    -25.83600000      5.62500000    -14.30100000
      3.25000000    711.28000000     -0.41570000    -26.22500000      3.70200000    -15.39100000
      1.06910000     65.68880000      0.27190000    -26.24500000      2.69300000    -15.35200000
      3.39970000    457.72960000     -0.02520000    -26.64300000      4.36300000    -16.64500000
      2.47140000     65.68880000      0.06980000    -27.45600000      3.76600000    -17.05800000
      2.47140000     65.68880000      0.06980000    -27.02000000      5.34800000    -16.36900000
      3.39970000    359.82400000      0.59730000    -25.56400000      4.52500000    -17.69900000
      2.95990000    878.64000000     -0.56790000    -25.69800000      5.32300000    -18.62000000
      3.25000000    711.28000000     -0.41570000    -24.44900000      3.82900000    -17.53000000
      1.06910000     65.68880000      0.27190000    -24.36000000      3.16200000    -16.77700000
      3.39970000    457.72960000      0.01430000    -23.32300000      4.01200000    -18.42100000
      2.47140000     65.68880000      0.10480000    -23.37800000      5.00100000    -18.87700000
      3.39970000    457.72960000     -0.20410000    -21.97700000      3.89200000    -17.65800000
      2.64950000     65.68880000      0.07970000    -21.16500000      4.01600000    -18.37500000
      2.64950000     65.68880000      0.07970000    -21.92800000      4.68600000    -16.91300000
      3.39970000    359.82400000      0.71300000    -21.80600000      2.57100000    -16.96300000
      2.95990000    878.64000000     -0.59310000    -22.70500000      1.72200000    -16.96200000
      3.25000000    711.28000000     -0.91910000    -20.64700000      2.38200000    -16.35800000
      1.06910000     65.68880000      0.41960000    -20.47000000      1.51400000    -15.87300000
      1.06910000     65.68880000      0.41960000    -19.94300000      3.10600000    -16.38400000
      3.39970000    359.82400000      0.59730000    -23.36900000      2.95600000    -19.50400000
      2.95990000    878.64000000     -0.56790000    -22.34200000      2.71800000    -20.15400000
      3.25000000    711.28000000     -0.41570000    -24.50800000      2.28700000    -19.67000000
      1.06910000     65.68880000      0.27190000    -25.31700000      2.44700000    -19.08700000
      3.39970000    457.72960000     -0.02520000    -24.60400000      1.28300000    -20.73000000
      2.47140000     65.68880000      0.06980000    -25.65900000      1.11600000    -20.94800000
      2.47140000     65.68880000      0.06980000    -24.10700000      1.67400000    -21.61800000
      3.39970000    359.82400000      0.59730000    -23.96300000     -0.03900000    -20.34800000
      2.95990000    878.64000000     -0.56790000    -23.97200000     -0.98200000    -21.16000000
      3.25000000    711.28000000     -0.34790000    -23.51700000     -0.17300000    -19.07700000
      1.06910000     65.68880000      0.27470000    -23.53100000      0.63400000    -18.47000000
      3.39970000    457.72960000     -0.24000000    -22.93700000     -1.41500000    -18.56700000
      2.47140000     65.68880000      0.14260000    -23.16900000     -2.22100000    -19.26300000
      3.39970000    457.72960000     -0.00940000    -21.41300000     -1.33200000    -18.40400000
      2.64950000     65.68880000      0.03620000    -21.22800000     -0.62400000    -17.59600000
      2.64950000     65.68880000      0.03620000    -21.08200000     -2.32500000    -18.09900000
      3.39970000    457.72960000      0.01870000    -20.64300000     -0.89900000    -19.64500000
      2.64950000     65.68880000      0.01030000    -20.74400000     -1.66100000    -20.41800000
      2.64950000     65.68880000      0.01030000    -21.04700000      0.04500000    -20.01100000
      3.39970000    457.72960000     -0.04790000    -19.16500000     -0.71900000    -19.29700000
      2.64950000     65.68880000      0.06210000    -19.11400000     -0.47200000    -18.23700000
      2.64950000     65.68880000      0.06210000    -18.67700000     -1.67800000    -19.47000000
      3.39970000    457.72960000     -0.01430000    -18.47300000      0.34200000    -20.08900000
      1.96000000     65.68880000      0.11350000    -17.73900000     -0.15000000    -20.72700000
      1.96000000     65.68880000      0.11350000    -19.22300000      0.83100000    -20.71000000
      3.25000000    711.28000000     -0.38540000    -17.78000000      1.37500000    -19.22700000
      1.06910000     65.68880000      0.34000000    -17.08400000      0.92200000    -18.65200000
      1.06910000     65.68880000      0.34000000    -17.33300000      2.06200000    -19.81800000
      1.06910000     65.68880000      0.34000000    -18.46000000      1.83100000    -18.63600000
      3.39970000    359.82400000      0.73410000    -23.59700000     -1.79800000    -17.24800000
      2.95990000    878.64000000     -0.58940000    -24.20700000     -0.95200000    -16.53100000
      3.25000000    711.28000000     -0.41570000    -23.52000000     -3.08400000    -16.91300000
      1.06910000     65.68880000      0.27190000    -22.90400000     -3.71500000    -17.40600000
      3.39970000    457.72960000     -0.00140000    -24.37700000     -3.63000000    -15.87200000
      2.47140000     65.68880000      0.08760000    -24.62600000     -2.84000000    -15.16400000
      3.39970000    457.72960000     -0.01520000    -25.69300000     -4.20800000    -16.45100000
      2.64950000     65.68880000      0.02950000    -25.43400000     -5.06200000    -17.07600000
      2.64950000     65.68880000      0.02950000    -26.28900000     -4.54600000    -15.60300000
      3.39970000    359.82400000     -0.00110000    -26.47600000     -3.23300000    -17.24700000
      3.39970000    359.82400000     -0.19060000    -26.21300000     -3.03900000    -18.60200000
      2.59960000     62.76000000      0.16990000    -25.43500000     -3.63600000    -19.07700000
      3.39970000    359.82400000     -0.23410000    -26.91500000     -2.11500000    -19.33700000
      2.59960000     62.76000000      0.16560000    -26.69500000     -1.97100000    -20.39500000
      3.39970000    359.82400000      0.32260000    -27.88300000     -1.37900000    -18.74100000
      3.06650000    880.31360000     -0.55790000    -28.52400000     -0.46600000    -19.51900000
      1.24730000     41.84000000      0.39920000    -28.20300000     -0.45300000    -20.42400000
      3.39970000    359.82400000     -0.23410000    -28.20300000     -1.54700000    -17.42000000
      2.59960000     62.76000000      0.16560000    -28.99200000     -0.95300000    -16.95800000
      3.39970000    359.82400000     -0.19060000    -27.50900000     -2.48800000    -16.66600000
      2.59960000     62.76000000      0.16990000    -27.76900000     -2.64700000    -15.61900000
      3.39970000    359.82400000      0.59730000    -23.70900000     -4.69900000    -15.04000000
      2.95990000    878.64000000     -0.56790000    -23.01600000     -5.55400000    -15.52700000
      3.25000000    711.28000000     -0.41570000    -23.91700000     -4.57900000    -13.72700000
      1.06910000     65.68880000      0.27190000    -24.43800000     -3.77600000    -13.40300000
      3.39970000    457.72960000     -0.02520000    -23.44200000     -5.52700000    -12.74800000
      2.47140000     65.68880000      0.06980000    -24.08400000     -5.44100000    -11.87100000
      2.47140000     65.68880000      0.06980000    -23.54700000     -6.52300000    -13.17900000
      3.39970000    359.82400000      0.59730000    -22.01200000     -5.32400000    -12.32900000
      2.95990000    878.64000000     -0.56790000    -21.33900000     -4.38500000    -12.78900000
      3.25000000    711.28000000     -0.41570000    -21.48700000     -6.33400000    -11.60600000
      1.06910000     65.68880000      0.27190000    -22.00300000     -7.19200000    -11.47500000
      3.39970000    457.72960000     -0.02520000    -20.18000000     -6.22200000    -11.00000000
      2.47140000     65.68880000      0.06980000    -20.14400000     -5.27100000    -10.46900000
      2.47140000     65.68880000      0.06980000    -20.07700000     -7.04000000    -10.28700000
      3.39970000    359.82400000      0.59730000    -19.02700000     -6.28000000    -11.99000000
      2.95990000    878.64000000     -0.56790000    -17.99000000     -5.65200000    -11.80400000
      3.25000000    711.28000000     -0.41570000    -19.28900000     -6.96800000    -13.10200000
      1.06910000     65.68880000      0.27190000    -20.15500000     -7.48200000    -13.17500000
      3.39970000    457.72960000     -0.05180000    -18.35500000     -7.06800000    -14.16800000
      2.47140000     65.68880000      0.09220000    -17.37900000     -6.71000000    -13.84200000
      3.39970000    457.72960000     -0.11020000    -18.21500000     -8.54300000    -14.62100000
      2.64950000     65.68880000      0.04570000    -19.20800000     -8.81200000    -14.98200000
      2.64950000     65.68880000      0.04570000    -17.50000000     -8.60900000    -15.44100000
      3.39970000    457.72960000      0.35310000    -17.80200000     -9.50200000    -13.50800000
      2.64950000     65.68880000     -0.03610000    -18.40200000     -9.29300000    -12.62200000
      3.39970000    457.72960000     -0.41210000    -18.01400000    -10.94600000    -13.93500000
      2.64950000     65.68880000      0.10000000    -17.41400000    -11.15600000    -14.82000000
      2.64950000     65.68880000      0.10000000    -17.71300000    -11.61200000    -13.12700000
      2.64950000     65.68880000      0.10000000    -19.06700000    -11.10700000    -14.16500000
      3.39970000    457.72960000     -0.41210000    -16.35600000     -9.29500000    -13.07200000
      2.64950000     65.68880000      0.10000000    -16.22900000     -8.27700000    -12.70400000
      2.64950000     65.68880000      0.10000000    -16.11100000    -10.00100000    -12.27900000
      2.64950000     65.68880000      0.10000000    -15.69300000     -9.45900000    -13.92100000
      3.39970000    359.82400000      0.59730000    -18.69300000     -6.19500000    -15.37300000
      2.95990000    878.64000000     -0.56790000    -17.93800000     -6.20400000    -16.38900000
      3.25000000    711.28000000     -0.41570000    -19.66700000     -5.30500000    -15.21400000
      1.06910000     65.68880000      0.27190000    -20.32200000     -5.42000000    -14.45400000
      3.39970000    457.72960000     -0.00310000    -19.91700000     -4.21600000    -16.20500000
      2.47140000     65.68880000      0.08500000    -20.88200000     -3.75700000    -15.99100000
      3.39970000    457.72960000     -0.00360000    -18.84200000     -3.13500000    -16.15500000
      2.64950000     65.68880000      0.01710000    -17.87500000     -3.62400000    -16.27600000
      2.64950000     65.68880000      0.01710000    -19.01400000     -2.45900000    -16.99300000
      3.39970000    457.72960000     -0.06450000    -18.85100000     -2.33100000    -14.83500000
      2.64950000     65.68880000      0.03520000    -18.93100000     -3.10600000    -14.07300000
      2.64950000     65.68880000      0.03520000    -17.93800000     -1.75800000    -14.67500000
      3.39970000    359.82400000      0.69510000    -20.03800000     -1.39800000    -14.70300000
      2.95990000    878.64000000     -0.60860000    -21.11000000     -1.76100000    -14.14200000
      3.25000000    711.28000000     -0.94070000    -19.90100000     -0.27700000    -15.31600000
      1.06910000     65.68880000      0.42510000    -20.64300000      0.40700000    -15.28300000
      1.06910000     65.68880000      0.42510000    -19.05200000     -0.08600000    -15.82800000
      3.39970000    359.82400000      0.59730000    -20.10200000     -4.80200000    -17.62600000
      2.95990000    878.64000000     -0.56790000    -19.51200000     -4.31600000    -18.58400000
      3.25000000    711.28000000     -0.41570000    -21.03300000     -5.71500000    -17.73300000
      1.06910000     65.68880000      0.27190000    -21.54500000     -5.95700000    -16.89700000
      3.39970000    457.72960000     -0.00240000    -21.40400000     -6.36300000    -18.98100000
      2.47140000     65.68880000      0.09780000    -20.49800000     -6.69000000    -19.49000000
      3.39970000    457.72960000     -0.03430000    -22.30800000     -7.57800000    -18.76200000
      2.64950000     65.68880000      0.02950000    -22.88400000     -7.41400000    -17.85100000
      2.64950000     65.68880000      0.02950000    -22.98900000     -7.70800000    -19.60300000
      3.39970000    359.82400000      0.01180000    -21.59400000     -8.87500000    -18.58700000
      3.39970000    359.82400000     -0.12560000    -21.08000000     -9.53600000    -19.71100000
      2.59960000     62.76000000      0.13300000    -21.17800000     -9.08400000    -20.69800000
      3.39970000    359.82400000     -0.17040000    -20.44300000    -10.77300000    -19.56800000
      2.59960000     62.76000000      0.14300000    -20.07000000    -11.29100000    -20.45200000
      3.39970000    359.82400000     -0.10720000    -20.28300000    -11.34400000    -18.30500000
      2.59960000     62.76000000      0.12970000    -19.74800000    -12.28600000    -18.18200000
      3.39970000    359.82400000     -0.17040000    -20.81100000    -10.70300000    -17.20500000
      2.59960000     62.76000000      0.14300000    -20.73800000    -11.15000000    -16.21300000
      3.39970000    359.82400000     -0.12560000    -21.45100000     -9.45700000    -17.37200000
      2.59960000     62.76000000      0.13300000    -21.85100000     -8.92900000    -16.50600000
      3.39970000    359.82400000      0.59730000    -22.19100000     -5.37600000    -19.80900000
      2.95990000    878.64000000     -0.56790000    -23.05500000     -4.67600000    -19.31000000
      3.25000000    711.28000000     -0.34790000    -21.90400000     -5.38400000    -21.11100000
      1.06910000     65.68880000      0.27470000    -21.02600000     -5.75800000    -21.44100000
      3.39970000    457.72960000     -0.24000000    -22.80500000     -4.78900000    -22.07900000
      2.47140000     65.68880000      0.14260000    -23.22200000     -3.86700000    -21.67400000
      3.39970000    457.72960000     -0.00940000    -22.05600000     -4.45800000    -23.39500000
      2.64950000     65.68880000      0.03620000    -21.38000000     -5.28000000    -23.63100000
      2.64950000     65.68880000      0.03620000    -22.78600000     -4.34800000    -24.19700000
      3.39970000    457.72960000      0.01870000    -21.26900000     -3.18700000    -23.25700000
      2.64950000     65.68880000      0.01030000    -21.98800000     -2.37000000    -23.19800000
      2.64950000     65.68880000      0.01030000    -20.71600000     -3.25300000    -22.32000000
      3.39970000    457.72960000     -0.04790000    -20.30500000     -2.92800000    -24.39300000
      2.64950000     65.68880000      0.06210000    -19.67500000     -3.80400000    -24.54400000
      2.64950000     65.68880000      0.06210000    -20.86400000     -2.72200000    -25.30600000
      3.39970000    457.72960000     -0.01430000    -19.42800000     -1.72300000    -24.04900000
      1.96000000     65.68880000      0.11350000    -20.05000000     -0.83100000    -24.12200000
      1.96000000     65.68880000      0.11350000    -19.08700000     -1.84500000    -23.02100000
      3.25000000    711.28000000     -0.38540000    -18.24500000     -1.58100000    -24.95200000
      1.06910000     65.68880000      0.34000000    -18.56000000     -1.46700000    -25.90500000
      1.06910000     65.68880000      0.34000000    -17.70700000     -0.77200000    -24.67700000
      1.06910000     65.68880000      0.34000000    -17.66900000     -2.40800000    -24.88400000
      3.39970000    359.82400000      0.73410000    -24.00100000     -5.74500000    -22.32600000
      2.95990000    878.64000000     -0.58940000    -23.82000000     -6.93400000    -22.36500000
      3.25000000    711.28000000     -0.25480000    -25.21800000     -5.22100000    -22.48400000
      3.39970000    457.72960000      0.01920000    -25.63900000     -3.80500000    -22.55900000
      2.47140000     65.68880000      0.03910000    -25.30400000     -3.36900000    -23.50000000
      2.47140000     65.68880000      0.03910000    -25.20900000     -3.24700000    -21.72700000
      3.39970000    457.72960000      0.01890000    -27.14800000     -3.90500000    -22.46900000
      2.64950000     65.68880000      0.02130000    -27.61600000     -3.04300000    -22.94500000
      2.64950000     65.68880000      0.02130000    -27.46400000     -3.96000000    -21.42700000
      3.39970000    457.72960000     -0.00700000    -27.47700000     -5.18500000    -23.20100000
      2.64950000     65.68880000      0.02530000    -27.50500000     -5.06800000    -24.28400000
      2.64950000     65.68880000      0.02530000    -28.42900000     -5.58800000    -22.85500000
      3.39970000    457.72960000     -0.02660000    -26.32600000     -6.13700000    -22.80600000
      2.47140000     65.68880000      0.06410000    -26.54800000     -6.67500000    -21.88400000
      3.39970000    359.82400000      0.58960000    -26.06700000     -7.16400000    -23.95900000
      2.95990000    878.64000000     -0.57480000    -26.51400000     -8.29400000    -23.83900000
      3.25000000    711.28000000     -0.41570000    -25.41400000     -6.77500000    -25.06100000
      1.06910000     65.68880000      0.27190000    -25.08700000     -5.82400000    -25.15700000
      3.39970000    457.72960000      0.03370000    -25.27600000     -7.68700000    -26.22300000
      2.47140000     65.68880000      0.08230000    -26.27000000     -8.09600000    -26.40400000
      3.39970000    457.72960000     -0.18250000    -24.80900000     -6.95100000    -27.49200000
      2.64950000     65.68880000      0.06030000    -23.81100000     -6.54300000    -27.33000000
      2.64950000     65.68880000      0.06030000    -24.78400000     -7.64900000    -28.32900000
      2.64950000     65.68880000      0.06030000    -25.50100000     -6.13900000    -27.71700000
      3.39970000    359.82400000      0.59730000    -24.37300000     -8.86700000    -25.88200000
      2.95990000    878.64000000     -0.56790000    -24.67400000     -9.97800000    -26.27800000
      3.25000000    711.28000000     -0.41570000    -23.31600000     -8.62400000    -25.12400000
      1.06910000     65.68880000      0.27190000    -23.10100000     -7.67500000    -24.85300000
      3.39970000    457.72960000     -0.03890000    -22.44300000     -9.68600000    -24.66200000
      2.47140000     65.68880000      0.10070000    -22.10700000    -10.28200000    -25.51000000
      3.39970000    457.72960000      0.36540000    -21.19800000     -9.10700000    -23.93800000
      2.47140000     65.68880000      0.00430000    -21.52400000     -8.64800000    -23.00500000
      3.39970000    457.72960000     -0.24380000    -20.16600000    -10.19600000    -23.63700000
      2.64950000     65.68880000      0.06420000    -19.83900000    -10.65500000    -24.57000000
      2.64950000     65.68880000      0.06420000    -19.30800000     -9.75400000    -23.13000000
      2.64950000     65.68880000      0.06420000    -20.61500000    -10.95500000    -22.99600000
      3.06650000    880.31360000     -0.67610000    -20.59700000     -8.11100000    -24.78200000
      1.24730000     41.84000000      0.41020000    -19.82500000     -7.74500000    -24.34500000
      3.39970000    359.82400000      0.59730000    -23.15800000    -10.62400000    -23.67300000
      2.95990000    878.64000000     -0.56790000    -23.09800000    -11.84400000    -23.78400000
      3.25000000    711.28000000     -0.41570000    -23.89400000    -10.04300000    -22.74200000
      1.06910000     65.68880000      0.27190000    -23.93900000     -9.03600000    -22.67600000
      3.39970000    457.72960000     -0.02750000    -24.62800000    -10.82900000    -21.76900000
      2.47140000     65.68880000      0.11230000    -23.94700000    -11.41500000    -21.15200000
      3.39970000    457.72960000     -0.00500000    -25.41000000     -9.87300000    -20.86200000
      2.64950000     65.68880000      0.03390000    -24.68700000     -9.21300000    -20.38300000
      2.64950000     65.68880000      0.03390000    -26.08000000     -9.28400000    -21.48900000
      3.39970000    359.82400000     -0.14150000    -26.20600000    -10.42500000    -19.82300000
      3.39970000    359.82400000     -0.16380000    -27.59300000    -10.51000000    -19.81400000
      2.51060000     62.76000000      0.20620000    -28.12200000    -10.11100000    -20.68000000
      3.25000000    711.28000000     -0.34180000    -28.01100000    -11.10400000    -18.66600000
      1.06910000     65.68880000      0.34120000    -28.96800000    -11.35400000    -18.46200000
      3.39970000    359.82400000      0.13800000    -26.92800000    -11.37800000    -17.86800000
      3.39970000    359.82400000     -0.26010000    -26.86900000    -11.99300000    -16.60100000
      2.59960000     62.76000000      0.15720000    -27.80500000    -12.29400000    -16.12900000
      3.39970000    359.82400000     -0.11340000    -25.63400000    -12.17600000    -16.03800000
      2.59960000     62.76000000      0.14170000    -25.54700000    -12.59200000    -15.03400000
      3.39970000    359.82400000     -0.19720000    -24.45000000    -11.83000000    -16.74600000
      2.59960000     62.76000000      0.14470000    -23.46600000    -12.04300000    -16.32700000
      3.39970000    359.82400000     -0.23870000    -24.51000000    -11.21400000    -17.98600000
      2.59960000     62.76000000      0.17000000    -23.57100000    -10.91300000    -18.45100000
      3.39970000    359.82400000      0.12430000    -25.76500000    -10.99400000    -18.58100000
      3.39970000    359.82400000      0.59730000    -25.54800000    -11.77600000    -22.52700000
      2.95990000    878.64000000     -0.56790000    -25.52900000    -12.96000000    -22.26000000
      3.25000000    711.28000000     -0.41570000    -26.36200000    -11.24500000    -23.44000000
      1.06910000     65.68880000      0.27190000    -26.29200000    -10.25900000    -23.64800000
      3.39970000    457.72960000      0.03370000    -27.40400000    -12.03000000    -24.12200000
      2.47140000     65.68880000      0.08230000    -28.01700000    -12.53900000    -23.37800000
      3.39970000    457.72960000     -0.18250000    -28.31300000    -11.12300000    -24.97000000
      2.64950000     65.68880000      0.06030000    -27.71500000    -10.61300000    -25.72600000
      2.64950000     65.68880000      0.06030000    -29.07700000    -11.72800000    -25.45900000
      2.64950000     65.68880000      0.06030000    -28.79200000    -10.38500000    -24.32700000
      3.39970000    359.82400000      0.59730000    -26.76000000    -13.10000000    -24.98700000
      2.95990000    878.64000000     -0.56790000    -27.24200000    -14.23000000    -25.04100000
      3.25000000    711.28000000     -0.41570000    -25.67200000    -12.72000000    -25.67000000
      1.06910000     65.68880000      0.27190000    -25.36900000    -11.75800000    -25.61400000
      3.39970000    457.72960000      0.03370000    -24.96100000    -13.60900000    -26.55000000
      2.47140000     65.68880000      0.08230000    -25.67000000    -13.97200000    -27.29400000
      3.39970000    457.72960000     -0.18250000    -23.82000000    -12.89300000    -27.27100000
      2.64950000     65.68880000      0.06030000    -23.09700000    -12.53100000    -26.53900000
      2.64950000     65.68880000      0.06030000    -23.32900000    -13.58700000    -27.95400000
      2.64950000     65.68880000      0.06030000    -24.21800000    -12.05000000    -27.83500000
      3.39970000    359.82400000      0.59730000    -24.43800000    -14.83100000    -25.78500000
      2.95990000    878.64000000     -0.56790000    -24.40200000    -15.92500000    -26.36600000
      3.25000000    711.28000000     -0.41570000    -24.11300000    -14.67600000    -24.49800000
      1.06910000     65.68880000      0.27190000    -24.10300000    -13.75100000    -24.09200000
      3.39970000    457.72960000     -0.00240000    -23.57200000    -15.78000000    -23.71500000
      2.47140000     65.68880000      0.09780000    -23.39600000    -16.64200000    -24.35900000
      3.39970000    457.72960000     -0.03430000    -22.25900000    -15.37500000    -23.07900000
      2.64950000     65.68880000      0.02950000    -22.39600000    -14.39800000    -22.61600000
      2.64950000     65.68880000      0.02950000    -21.90300000    -16.08400000    -22.33100000
      3.39970000    359.82400000      0.01180000    -21.17500000    -15.22500000    -24.06900000
      3.39970000    359.82400000     -0.12560000    -21.01200000    -14.02200000    -24.77600000
      2.59960000     62.76000000      0.13300000    -21.70100000    -13.20300000    -24.57000000
      3.39970000    359.82400000     -0.17040000    -20.00600000    -13.86100000    -25.71600000
      2.59960000     62.76000000      0.14300000    -19.84800000    -12.90300000    -26.21200000
      3.39970000    359.82400000     -0.10720000    -19.20200000    -14.93200000    -26.01900000
      2.59960000     62.76000000      0.12970000    -18.43100000    -14.83400000    -26.78400000
      3.39970000    359.82400000     -0.17040000    -19.37200000    -16.15600000    -25.34300000
      2.59960000     62.76000000      0.14300000    -18.73100000    -17.00200000    -25.59200000
      3.39970000    359.82400000     -0.12560000    -20.35600000    -16.29000000    -24.35700000
      2.59960000     62.76000000      0.13300000    -20.46800000    -17.23400000    -23.82400000
      3.39970000    359.82400000      0.59730000    -24.52400000    -16.43700000    -22.71700000
      2.95990000    878.64000000     -0.56790000    -24.09800000    -17.17300000    -21.81700000
      3.25000000    711.28000000     -0.41570000    -25.81700000    -16.25100000    -22.92800000
      1.06910000     65.68880000      0.27190000    -26.13800000    -15.57300000    -23.60400000
      3.39970000    457.72960000     -0.02520000    -26.81500000    -17.01900000    -22.19100000
      2.47140000     65.68880000      0.06980000    -27.61500000    -17.25900000    -22.89100000
      2.47140000     65.68880000      0.06980000    -26.33200000    -17.93900000    -21.86200000
      3.39970000    359.82400000      0.59730000    -27.40100000    -16.32300000    -21.00000000
      2.95990000    878.64000000     -0.56790000    -28.26900000    -16.87800000    -20.30400000
      3.25000000    711.28000000     -0.41570000    -27.00900000    -15.07900000    -20.79000000
      1.06910000     65.68880000      0.27190000    -26.27200000    -14.65400000    -21.33500000
      3.39970000    457.72960000     -0.02520000    -27.63800000    -14.29100000    -19.75900000
      2.47140000     65.68880000      0.06980000    -27.74200000    -14.89900000    -18.86000000
      2.47140000     65.68880000      0.06980000    -27.01200000    -13.42500000    -19.54100000
      3.39970000    359.82400000      0.59730000    -29.01200000    -13.81100000    -20.19300000
      2.95990000    878.64000000     -0.56790000    -29.23000000    -13.40900000    -21.34200000
      3.25000000    711.28000000     -0.41570000    -29.94300000    -13.79700000    -19.25600000
      1.06910000     65.68880000      0.27190000    -29.80000000    -14.24600000    -18.36300000
      3.39970000    457.72960000     -0.08750000    -31.22300000    -13.20800000    -19.52300000
      2.47140000     65.68880000      0.09690000    -31.26000000    -12.73200000    -20.50300000
      3.39970000    457.72960000      0.29850000    -32.32900000    -14.26100000    -19.44900000
      2.64950000     65.68880000     -0.02970000    -32.09200000    -15.06700000    -20.14400000
      3.39970000    457.72960000     -0.31920000    -32.45100000    -14.82600000    -18.04000000
      2.64950000     65.68880000      0.07910000    -32.68800000    -14.02100000    -17.34400000
      2.64950000     65.68880000      0.07910000    -33.24500000    -15.57300000    -18.01500000
      2.64950000     65.68880000      0.07910000    -31.50800000    -15.28900000    -17.75100000
      3.39970000    457.72960000     -0.31920000    -33.64000000    -13.65600000    -19.90800000
      2.64950000     65.68880000      0.07910000    -33.54000000    -13.30800000    -20.93600000
      2.64950000     65.68880000      0.07910000    -34.42700000    -14.40900000    -19.85400000
      2.64950000     65.68880000      0.07910000    -33.89800000    -12.81500000    -19.26400000
      3.39970000    359.82400000      0.59730000    -31.43200000    -12.06100000    -18.53100000
      2.95990000    878.64000000     -0.56790000    -30.83400000    -12.06200000    -17.44600000
      3.25000000    711.28000000     -0.41570000    -32.23000000    -11.07400000    -18.94000000
      1.06910000     65.68880000      0.27190000    -32.60200000    -11.10000000    -19.87900000
      3.39970000    457.72960000     -0.02520000    -32.58900000     -9.95700000    -18.08900000
      2.47140000     65.68880000      0.06980000    -33.40000000     -9.40600000    -18.56600000
      2.47140000     65.68880000      0.06980000    -32.93100000    -10.34900000    -17.13100000
      3.39970000    359.82400000      0.59730000    -31.41900000     -9.00900000    -17.84900000
      2.95990000    878.64000000     -0.56790000    -30.39300000     -9.02600000    -18.57300000
      3.25000000    711.28000000     -0.41570000    -31.55500000     -8.18800000    -16.81700000
      1.06910000     65.68880000      0.27190000    -32.39600000     -8.22100000    -16.25800000
      3.39970000    457.72960000      0.01430000    -30.54900000     -7.21500000    -16.47900000
      2.47140000     65.68880000      0.10480000    -30.13000000     -6.76200000    -17.37800000
      3.39970000    457.72960000     -0.20410000    -31.21000000     -6.10600000    -15.63000000
      2.64950000     65.68880000      0.07970000    -32.08300000     -5.76600000    -16.18800000
      2.64950000     65.68880000      0.07970000    -31.52600000     -6.48800000    -14.65900000
      3.39970000    359.82400000      0.71300000    -30.27900000     -4.91500000    -15.40600000
      2.95990000    878.64000000     -0.59310000    -29.09000000     -5.08200000    -15.24700000
      3.25000000    711.28000000     -0.91910000    -30.84500000     -3.72700000    -15.33800000
      1.06910000     65.68880000      0.41960000    -30.27400000     -2.90700000    -15.19100000
      1.06910000     65.68880000      0.41960000    -31.84700000     -3.64200000    -15.43300000
      3.39970000    359.82400000      0.59730000    -29.40000000     -7.88200000    -15.71000000
      2.95990000    878.64000000     -0.56790000    -29.64500000     -8.53600000    -14.69100000
      3.25000000    711.28000000     -0.25480000    -28.14200000     -7.74100000    -16.18400000
      3.39970000    457.72960000      0.01920000    -27.70100000     -7.17200000    -17.46800000
      2.47140000     65.68880000      0.03910000    -27.75500000     -6.08400000    -17.42600000
      2.47140000     65.68880000      0.03910000    -28.34200000     -7.53600000    -18.27100000
      3.39970000    457.72960000      0.01890000    -26.28900000     -7.67600000    -17.58800000
      2.64950000     65.68880000      0.02130000    -25.68300000     -6.89200000    -18.04200000
      2.64950000     65.68880000      0.02130000    -26.29200000     -8.55300000    -18.23600000
      3.39970000    457.72960000     -0.00700000    -25.80100000     -8.02000000    -16.23800000
      2.64950000     65.68880000      0.02530000    -25.32200000     -7.15200000    -15.78500000
      2.64950000     65.68880000      0.02530000    -25.10100000     -8.85500000    -16.25100000
      3.39970000    457.72960000     -0.02660000    -27.05500000     -8.40000000    -15.43900000
      2.47140000     65.68880000      0.06410000    -27.25200000     -9.47200000    -15.45400000
      3.39970000    359.82400000      0.58960000    -26.93000000     -7.91900000    -13.96900000
      2.95990000    878.64000000     -0.57480000    -26.51400000     -8.71700000    -13.04900000
      3.25000000    711.28000000     -0.41570000    -27.37200000     -6.68500000    -13.69000000
      1.06910000     65.68880000      0.27190000    -27.65500000     -6.06800000    -14.43800000
      3.39970000    457.72960000      0.03370000    -27.36700000     -6.16100000    -12.32000000
      2.47140000     65.68880000      0.08230000    -26.36900000     -6.36700000    -11.93400000
      3.39970000    457.72960000     -0.18250000    -27.58000000     -4.65700000    -12.33900000
      2.64950000     65.68880000      0.06030000    -28.57900000     -4.43600000    -12.71500000
      2.64950000     65.68880000      0.06030000    -27.47700000     -4.26200000    -11.32800000
      2.64950000     65.68880000      0.06030000    -26.83700000     -4.19300000    -12.98800000
      3.39970000    359.82400000      0.59730000    -28.36800000     -6.80600000    -11.38100000
      2.95990000    878.64000000     -0.56790000    -28.24800000     -6.62900000    -10.15400000
      3.25000000    711.28000000     -0.41570000    -29.39100000     -7.48300000    -11.92700000
      1.06910000     65.68880000      0.27190000    -29.52000000     -7.44200000    -12.92800000
      3.39970000    457.72960000      0.03370000    -30.38600000     -8.21600000    -11.12300000
      2.47140000     65.68880000      0.08230000    -30.43300000     -7.74700000    -10.14000000
      3.39970000    457.72960000     -0.18250000    -31.78400000     -8.13600000    -11.77500000
      2.64950000     65.68880000      0.06030000    -31.75600000     -8.61000000    -12.75600000
      2.64950000     65.68880000      0.06030000    -32.50900000     -8.65000000    -11.14500000
      2.64950000     65.68880000      0.06030000    -32.07500000     -7.09100000    -11.88500000
      3.39970000    359.82400000      0.59730000    -29.96100000     -9.68700000    -10.90700000
      2.95990000    878.64000000     -0.56790000    -30.55000000    -10.39500000    -10.07200000
      3.25000000    711.28000000     -0.41570000    -28.94400000    -10.13700000    -11.63100000
      1.06910000     65.68880000      0.27190000    -28.53300000     -9.54500000    -12.33900000
      3.39970000    457.72960000      0.03370000    -28.45500000    -11.48600000    -11.50000000
      2.47140000     65.68880000      0.08230000    -29.29100000    -12.16700000    -11.33800000
      3.39970000    457.72960000     -0.18250000    -27.72700000    -11.90300000    -12.76700000
      2.64950000     65.68880000      0.06030000    -26.88200000    -11.23600000    -12.93700000
      2.64950000     65.68880000      0.06030000    -27.36600000    -12.92600000    -12.65900000
      2.64950000     65.68880000      0.06030000    -28.41000000    -11.84700000    -13.61400000
      3.39970000    359.82400000      0.59730000    -27.57800000    -11.58500000    -10.27200000
      2.95990000    878.64000000     -0.56790000    -26.97900000    -10.58000000     -9.89400000
      3.25000000    711.28000000     -0.41570000    -27.57900000    -12.71300000     -9.60900000
      1.06910000     65.68880000      0.27190000    -28.28000000    -13.41100000     -9.81000000
      3.39970000    457.72960000     -0.02490000    -26.64300000    -12.96500000     -8.51000000
      2.47140000     65.68880000      0.08430000    -26.77500000    -12.20500000     -7.74000000
      3.39970000    457.72960000      0.21170000    -26.88100000    -14.35100000     -7.87900000
      2.47140000     65.68880000      0.03520000    -26.29700000    -14.39800000     -6.96000000
      2.47140000     65.68880000      0.03520000    -27.94200000    -14.42400000     -7.63900000
      3.06650000    880.31360000     -0.65460000    -26.51400000    -15.42500000     -8.72700000
      1.24730000     41.84000000      0.42750000    -26.68500000    -16.25800000     -8.28100000
      3.39970000    359.82400000      0.59730000    -25.20200000    -12.81700000     -8.98000000
      2.95990000    878.64000000     -0.56790000    -24.88500000    -13.00700000    -10.17800000
      3.25000000    711.28000000     -0.34790000    -24.31400000    -12.52000000     -8.04600000
      1.06910000     65.68880000      0.27470000    -24.60600000    -12.28400000     -7.10800000
      3.39970000    457.72960000     -0.26370000    -22.82300000    -12.60100000     -8.33800000
      2.47140000     65.68880000      0.15600000    -22.51100000    -11.76700000     -8.96600000
      3.39970000    457.72960000     -0.00070000    -22.04500000    -12.53400000     -7.00800000
      2.64950000     65.68880000      0.03270000    -22.04700000    -11.48700000     -6.70400000
      2.64950000     65.68880000      0.03270000    -22.61500000    -13.12200000     -6.28900000
      3.39970000    457.72960000      0.03900000    -20.61600000    -13.04400000     -7.05800000
      2.64950000     65.68880000      0.02850000    -20.64000000    -14.08500000     -7.38000000
      2.64950000     65.68880000      0.02850000    -20.07100000    -12.45000000     -7.79100000
      3.39970000    457.72960000      0.04860000    -19.92400000    -12.94700000     -5.71600000
      2.47140000     65.68880000      0.06870000    -19.82900000    -11.89400000     -5.45200000
      2.47140000     65.68880000      0.06870000    -20.54000000    -13.45300000     -4.97300000
      3.25000000    711.28000000     -0.52950000    -18.57500000    -13.56100000     -5.71300000
      1.06910000     65.68880000      0.34560000    -17.82100000    -12.89200000     -5.65100000
      3.39970000    359.82400000      0.80760000    -18.26800000    -14.87400000     -5.76800000
      3.25000000    711.28000000     -0.86270000    -19.14400000    -15.76400000     -5.72500000
      1.06910000     65.68880000      0.44780000    -20.11800000    -15.50700000     -5.64700000
      1.06910000     65.68880000      0.44780000    -18.87400000    -16.73600000     -5.76900000
      3.25000000    711.28000000     -0.86270000    -17.02000000    -15.24900000     -5.88500000
      1.06910000     65.68880000      0.44780000    -16.28900000    -14.55300000     -5.93400000
      1.06910000     65.68880000      0.44780000    -16.79300000    -16.23200000     -5.92600000
      3.39970000    359.82400000      0.73410000    -22.49000000    -13.97400000     -8.98500000
      2.95990000    878.64000000     -0.58940000    -21.79400000    -14.01400000     -9.98100000
      3.25000000    711.28000000     -0.51630000    -23.05100000    -15.05200000     -8.41300000
      1.06910000     65.68880000      0.29360000    -23.49800000    -14.98400000     -7.51000000
      3.39970000    457.72960000      0.03970000    -22.77900000    -16.42600000     -8.97600000
      2.47140000     65.68880000      0.11050000    -21.70600000    -16.53300000     -9.13300000
      3.39970000    457.72960000      0.05600000    -23.26300000    -17.57600000     -8.02700000
      2.64950000     65.68880000     -0.01730000    -24.27400000    -17.37800000     -7.67200000
      2.64950000     65.68880000     -0.01730000    -23.24200000    -18.53400000     -8.54600000
      3.39970000    457.72960000      0.01360000    -22.26600000    -17.62200000     -6.78900000
      2.64950000     65.68880000     -0.04250000    -21.31400000    -17.85600000     -7.26600000
      2.64950000     65.68880000     -0.04250000    -22.27300000    -16.57500000     -6.48700000
      3.39970000    359.82400000      0.80540000    -22.45300000    -18.52100000     -5.54000000
      2.95990000    878.64000000     -0.81880000    -23.46700000    -19.28600000     -5.28600000
      2.95990000    878.64000000     -0.81880000    -21.43800000    -18.43500000     -4.77100000
      3.39970000    359.82400000      0.53660000    -23.22900000    -16.56400000    -10.45600000
      2.95990000    878.64000000     -0.58190000    -22.50700000    -17.15000000    -11.27000000
      3.25000000    711.28000000     -0.41570000    -24.38700000    -16.00700000    -10.82200000
      1.06910000     65.68880000      0.27190000    -24.99600000    -15.62000000    -10.11500000
      3.39970000    457.72960000     -0.00310000    -24.86400000    -16.03600000    -12.21600000
      2.47140000     65.68880000      0.08500000    -24.75900000    -17.04000000    -12.62700000
      3.39970000    457.72960000     -0.00360000    -26.33200000    -15.63900000    -12.27000000
      2.64950000     65.68880000      0.01710000    -26.45100000    -14.68700000    -11.75300000
      2.64950000     65.68880000      0.01710000    -26.62000000    -15.52300000    -13.31500000
      3.39970000    457.72960000     -0.06450000    -27.22500000    -16.69400000    -11.60900000
      2.64950000     65.68880000      0.03520000    -27.31300000    -17.51800000    -12.31700000
      2.64950000     65.68880000      0.03520000    -26.76600000    -17.05400000    -10.68800000
      3.39970000    359.82400000      0.69510000    -28.62200000    -16.17800000    -11.28700000
      2.95990000    878.64000000     -0.60860000    -28.83100000    -14.98700000    -11.03200000
      3.25000000    711.28000000     -0.94070000    -29.56700000    -17.08100000    -11.25400000
      1.06910000     65.68880000      0.42510000    -30.51700000    -16.80600000    -11.04600000
      1.06910000     65.68880000      0.42510000    -29.34300000    -18.04900000    -11.43600000
      3.39970000    359.82400000      0.59730000    -24.02600000    -15.18100000    -13.16400000
      2.95990000    878.64000000     -0.56790000    -23.79100000    -15.54200000    -14.33300000
      3.25000000    711.28000000     -0.41570000    -23.59700000    -14.02100000    -12.66900000
      1.06910000     65.68880000      0.27190000    -23.88100000    -13.73800000    -11.74200000
      3.39970000    457.72960000     -0.00310000    -22.77900000    -13.10800000    -13.44700000
      2.47140000     65.68880000      0.08500000    -23.26500000    -12.91500000    -14.40400000
      3.39970000    457.72960000     -0.00360000    -22.58100000    -11.77500000    -12.72200000
      2.64950000     65.68880000      0.01710000    -22.20400000    -11.99700000    -11.72400000
      2.64950000     65.68880000      0.01710000    -21.83200000    -11.20900000    -13.27500000
      3.39970000    457.72960000     -0.06450000    -23.84300000    -10.96300000    -12.61200000
      2.64950000     65.68880000      0.03520000    -24.18900000    -10.73200000    -13.62000000
      2.64950000     65.68880000      0.03520000    -24.60500000    -11.54300000    -12.09100000
      3.39970000    359.82400000      0.69510000    -23.62700000     -9.65600000    -11.86000000
      2.95990000    878.64000000     -0.60860000    -22.75100000     -8.85500000    -12.19100000
      3.25000000    711.28000000     -0.94070000    -24.42200000     -9.44300000    -10.82600000
      1.06910000     65.68880000      0.42510000    -24.32800000     -8.59400000    -10.28700000
      1.06910000     65.68880000      0.42510000    -25.12000000    -10.13000000    -10.58000000
      3.39970000    359.82400000      0.59730000    -21.44900000    -13.77600000    -13.74200000
      2.95990000    878.64000000     -0.56790000    -20.93200000    -13.62100000    -14.82600000
      3.25000000    711.28000000     -0.41570000    -20.89900000    -14.46400000    -12.74200000
      1.06910000     65.68880000      0.27190000    -21.33100000    -14.44600000    -11.82900000
      3.39970000    457.72960000     -0.05970000    -19.62200000    -15.18500000    -12.89700000
      2.47140000     65.68880000      0.08690000    -18.84700000    -14.63100000    -13.42700000
      3.39970000    457.72960000      0.13030000    -19.08700000    -15.63300000    -11.53400000
      2.64950000     65.68880000      0.01870000    -19.92400000    -15.97000000    -10.92300000
      3.39970000    457.72960000     -0.32040000    -18.07600000    -16.77400000    -11.68900000
      2.64950000     65.68880000      0.08820000    -17.23800000    -16.43700000    -12.30000000
      2.64950000     65.68880000      0.08820000    -17.71200000    -17.07300000    -10.70600000
      2.64950000     65.68880000      0.08820000    -18.55800000    -17.62400000    -12.17200000
      3.39970000    457.72960000     -0.04300000    -18.56800000    -14.41600000    -10.78800000
      2.64950000     65.68880000      0.02360000    -17.69200000    -14.04600000    -11.32100000
      2.64950000     65.68880000      0.02360000    -19.34900000    -13.65600000    -10.80400000
      3.39970000    457.72960000     -0.06600000    -18.19500000    -14.72300000     -9.36000000
      2.64950000     65.68880000      0.01860000    -17.41300000    -15.48200000     -9.34300000
      2.64950000     65.68880000      0.01860000    -17.83100000    -13.81700000     -8.87600000
      2.64950000     65.68880000      0.01860000    -19.07100000    -15.09200000     -8.82600000
      3.39970000    359.82400000      0.59730000    -19.76600000    -16.36600000    -13.84800000
      2.95990000    878.64000000     -0.56790000    -18.90800000    -16.57300000    -14.70600000
      3.25000000    711.28000000     -0.41570000    -20.89900000    -17.05100000    -13.78600000
      1.06910000     65.68880000      0.27190000    -21.59000000    -16.84300000    -13.07900000
      3.39970000    457.72960000      0.03370000    -21.17400000    -18.16100000    -14.73400000
      2.47140000     65.68880000      0.08230000    -20.39300000    -18.91600000    -14.64100000
      3.39970000    457.72960000     -0.18250000    -22.50900000    -18.81500000    -14.48000000
      2.64950000     65.68880000      0.06030000    -23.30200000    -18.07400000    -14.57800000
      2.64950000     65.68880000      0.06030000    -22.66700000    -19.61300000    -15.20500000
      2.64950000     65.68880000      0.06030000    -22.52400000    -19.23200000    -13.47300000
      3.39970000    359.82400000      0.59730000    -21.14600000    -17.62800000    -16.15200000
      2.95990000    878.64000000     -0.56790000    -20.52900000    -18.27100000    -17.04800000
      3.25000000    711.28000000     -0.41570000    -21.83300000    -16.51300000    -16.41900000
      1.06910000     65.68880000      0.27190000    -22.50600000    -16.14300000    -15.76300000
      3.39970000    457.72960000     -0.08750000    -21.75400000    -15.90200000    -17.75600000
      2.47140000     65.68880000      0.09690000    -21.91900000    -16.67900000    -18.50300000
      3.39970000    457.72960000      0.29850000    -22.78500000    -14.77600000    -17.98000000
      2.64950000     65.68880000     -0.02970000    -22.58700000    -13.98500000    -17.25700000
      3.39970000    457.72960000     -0.31920000    -22.71200000    -14.19600000    -19.40900000
      2.64950000     65.68880000      0.07910000    -22.91100000    -14.98600000    -20.13300000
      2.64950000     65.68880000      0.07910000    -23.45600000    -13.40700000    -19.52000000
      2.64950000     65.68880000      0.07910000    -21.71800000    -13.78500000    -19.58400000
      3.39970000    457.72960000     -0.31920000    -24.20500000    -15.32900000    -17.75000000
      2.64950000     65.68880000      0.07910000    -24.28900000    -15.70200000    -16.72900000
      2.64950000     65.68880000      0.07910000    -24.93500000    -14.53500000    -17.90800000
      2.64950000     65.68880000      0.07910000    -24.39700000    -16.14200000    -18.45000000
      3.39970000    359.82400000      0.59730000    -20.31800000    -15.44800000    -18.10500000
      2.95990000    878.64000000     -0.56790000    -19.86900000    -15.66300000    -19.24400000
      3.25000000    711.28000000     -0.41570000    -19.60200000    -14.85500000    -17.14800000
      1.06910000     65.68880000      0.27190000    -20.00000000    -14.64200000    -16.24400000
      3.39970000    457.72960000      0.03370000    -18.24300000    -14.39600000    -17.43300000
      2.47140000     65.68880000      0.08230000    -18.31100000    -13.73500000    -18.29700000
      3.39970000    457.72960000     -0.18250000    -17.65100000    -13.61600000    -16.27100000
      2.64950000     65.68880000      0.06030000    -17.56800000    -14.26700000    -15.40100000
      2.64950000     65.68880000      0.06030000    -16.66200000    -13.24900000    -16.54500000
      2.64950000     65.68880000      0.06030000    -18.29800000    -12.77200000    -16.03200000
      3.39970000    359.82400000      0.59730000    -17.34400000    -15.56000000    -17.83100000
      2.95990000    878.64000000     -0.56790000    -16.54000000    -15.39800000    -18.74800000
      3.25000000    711.28000000     -0.41570000    -17.47100000    -16.69800000    -17.14400000
      1.06910000     65.68880000      0.27190000    -18.02600000    -16.72200000    -16.30000000
      3.39970000    457.72960000      0.01430000    -16.67800000    -17.87900000    -17.48600000
      2.47140000     65.68880000      0.10480000    -15.62100000    -17.61400000    -17.48300000
      3.39970000    457.72960000     -0.20410000    -16.89900000    -19.01900000    -16.48700000
      2.64950000     65.68880000      0.07970000    -17.95100000    -19.14800000    -16.23500000
      2.64950000     65.68880000      0.07970000    -16.52900000    -19.92100000    -16.97400000
      3.39970000    359.82400000      0.71300000    -16.11500000    -18.80400000    -15.20400000
      2.95990000    878.64000000     -0.59310000    -15.00800000    -18.31000000    -15.24000000
      3.25000000    711.28000000     -0.91910000    -16.73100000    -19.10500000    -14.07400000
      1.06910000     65.68880000      0.41960000    -16.25300000    -18.98000000    -13.19300000
      1.06910000     65.68880000      0.41960000    -17.67700000    -19.45900000    -14.09700000
      3.39970000    359.82400000      0.59730000    -16.88400000    -18.31400000    -18.95700000
      2.95990000    878.64000000     -0.56790000    -15.94500000    -18.65300000    -19.65900000
      3.25000000    711.28000000     -0.34790000    -18.11300000    -18.26400000    -19.43600000
      1.06910000     65.68880000      0.27470000    -18.89500000    -18.05800000    -18.83100000
      3.39970000    457.72960000     -0.26370000    -18.38600000    -18.54500000    -20.86600000
      2.47140000     65.68880000      0.15600000    -17.99400000    -19.52300000    -21.14600000
      3.39970000    457.72960000     -0.00070000    -19.88400000    -18.54200000    -21.09100000
      2.64950000     65.68880000      0.03270000    -20.25800000    -17.55800000    -20.80900000
      2.64950000     65.68880000      0.03270000    -20.05800000    -18.70500000    -22.15500000
      3.39970000    457.72960000      0.03900000    -20.59900000    -19.59000000    -20.30400000
      2.64950000     65.68880000      0.02850000    -20.40300000    -20.57400000    -20.73000000
      2.64950000     65.68880000      0.02850000    -20.26400000    -19.57000000    -19.26700000
      3.39970000    457.72960000      0.04860000    -22.08100000    -19.30400000    -20.35900000
      2.47140000     65.68880000      0.06870000    -22.26900000    -18.30700000    -19.96100000
      2.47140000     65.68880000      0.06870000    -22.41700000    -19.35100000    -21.39500000
      3.25000000    711.28000000     -0.52950000    -22.84100000    -20.26700000    -19.57900000
      1.06910000     65.68880000      0.34560000    -22.33100000    -20.84200000    -18.92400000
      3.39970000    359.82400000      0.80760000    -24.15400000    -20.40000000    -19.64500000
      3.25000000    711.28000000     -0.86270000    -24.85100000    -19.63000000    -20.45600000
      1.06910000     65.68880000      0.44780000    -24.37800000    -18.94100000    -21.02400000
      1.06910000     65.68880000      0.44780000    -25.85500000    -19.73200000    -20.50600000
      3.25000000    711.28000000     -0.86270000    -24.74800000    -21.34300000    -18.92600000
      1.06910000     65.68880000      0.44780000    -24.19400000    -21.94900000    -18.33700000
      1.06910000     65.68880000      0.44780000    -25.75100000    -21.45100000    -18.97100000
      3.39970000    359.82400000      0.73410000    -17.72100000    -17.51800000    -21.81500000
      2.95990000    878.64000000     -0.58940000    -17.18900000    -17.90200000    -22.88500000
      3.25000000    711.28000000     -0.41570000    -17.77200000    -16.21600000    -21.43800000
      1.06910000     65.68880000      0.27190000    -18.23300000    -15.98200000    -20.57000000
      3.39970000    457.72960000     -0.08750000    -17.20200000    -15.12600000    -22.24000000
      2.47140000     65.68880000      0.09690000    -17.63400000    -15.17100000    -23.24000000
      3.39970000    457.72960000      0.29850000    -17.49400000    -13.72500000    -21.63500000
      2.64950000     65.68880000     -0.02970000    -17.23000000    -13.72900000    -20.57800000
      3.39970000    457.72960000     -0.31920000    -16.67700000    -12.66200000    -22.35800000
      2.64950000     65.68880000      0.07910000    -16.94100000    -12.65700000    -23.41500000
      2.64950000     65.68880000      0.07910000    -16.88900000    -11.68400000    -21.92600000
      2.64950000     65.68880000      0.07910000    -15.61500000    -12.88400000    -22.25000000
      3.39970000    457.72960000     -0.31920000    -18.96300000    -13.40700000    -21.79500000
      2.64950000     65.68880000      0.07910000    -19.55700000    -14.15900000    -21.27500000
      2.64950000     65.68880000      0.07910000    -19.17100000    -12.42400000    -21.37100000
      2.64950000     65.68880000      0.07910000    -19.22200000    -13.40800000    -22.85400000
      3.39970000    359.82400000      0.59730000    -15.70800000    -15.30500000    -22.33700000
      2.95990000    878.64000000     -0.56790000    -15.09900000    -15.19200000    -23.43600000
      3.25000000    711.28000000     -0.41570000    -15.12700000    -15.68800000    -21.21100000
      1.06910000     65.68880000      0.27190000    -15.65100000    -15.74000000    -20.34900000
      3.39970000    457.72960000     -0.05180000    -13.69800000    -15.97300000    -21.16900000
      2.47140000     65.68880000      0.09220000    -13.13500000    -15.09200000    -21.47500000
      3.39970000    457.72960000     -0.11020000    -13.27900000    -16.35100000    -19.76400000
      2.64950000     65.68880000      0.04570000    -13.51000000    -15.44900000    -19.19700000
      2.64950000     65.68880000      0.04570000    -13.90500000    -17.17100000    -19.41300000
      3.39970000    457.72960000      0.35310000    -11.82600000    -16.70900000    -19.56900000
      2.64950000     65.68880000     -0.03610000    -11.57200000    -17.54200000    -20.22500000
      3.39970000    457.72960000     -0.41210000    -10.94000000    -15.51500000    -19.89900000
      2.64950000     65.68880000      0.10000000    -11.19300000    -14.68200000    -19.24300000
      2.64950000     65.68880000      0.10000000     -9.89400000    -15.78700000    -19.75400000
      2.64950000     65.68880000      0.10000000    -11.09800000    -15.22000000    -20.93600000
      3.39970000    457.72960000     -0.41210000    -11.63000000    -17.21000000    -18.16400000
      2.64950000     65.68880000      0.10000000    -12.25100000    -18.09100000    -18.00200000
      2.64950000     65.68880000      0.10000000    -10.58300000    -17.47100000    -18.01400000
      2.64950000     65.68880000      0.10000000    -11.91500000    -16.43100000    -17.45700000
      3.39970000    359.82400000      0.59730000    -13.28100000    -17.08300000    -22.16200000
      2.95990000    878.64000000     -0.56790000    -12.29400000    -16.94200000    -22.87400000
      3.25000000    711.28000000     -0.41570000    -14.00700000    -18.20100000    -22.11200000
      1.06910000     65.68880000      0.27190000    -14.72600000    -18.29300000    -21.40900000
      3.39970000    457.72960000      0.03370000    -13.73100000    -19.35600000    -22.98500000
      2.47140000     65.68880000      0.08230000    -12.71100000    -19.68700000    -22.78900000
      3.39970000    457.72960000     -0.18250000    -14.68600000    -20.50100000    -22.66300000
      2.64950000     65.68880000      0.06030000    -15.71100000    -20.18700000    -22.86300000
      2.64950000     65.68880000      0.06030000    -14.44300000    -21.36300000    -23.28400000
      2.64950000     65.68880000      0.06030000    -14.58800000    -20.77200000    -21.61200000
      3.39970000    359.82400000      0.59730000    -13.79200000    -18.96700000    -24.45900000
      2.95990000    878.64000000     -0.56790000    -12.91800000    -19.33500000    -25.20800000
      3.25000000    711.28000000     -0.51630000    -14.75800000    -18.16400000    -24.86500000
      1.06910000     65.68880000      0.29360000    -15.40400000    -17.78100000    -24.19000000
      3.39970000    457.72960000      0.03970000    -14.94000000    -17.80900000    -26.28900000
      2.47140000     65.68880000      0.11050000    -14.67300000    -18.64700000    -26.93300000
      3.39970000    457.72960000      0.05600000    -16.41100000    -17.46400000    -26.52100000
      2.64950000     65.68880000     -0.01730000    -16.97800000    -18.36000000    -26.26700000
      2.64950000     65.68880000     -0.01730000    -16.65300000    -16.66900000    -25.81500000
      3.39970000    457.72960000      0.01360000    -16.77600000    -17.01400000    -27.94100000
      2.64950000     65.68880000     -0.04250000    -17.60800000    -16.31100000    -27.89900000
      2.64950000     65.68880000     -0.04250000    -15.87500000    -16.49100000    -28.26200000
      3.39970000    359.82400000      0.80540000    -17.09200000    -18.09900000    -28.91000000
      2.95990000    878.64000000     -0.81880000    -17.89100000    -18.94300000    -28.46600000
      2.95990000    878.64000000     -0.81880000    -16.62500000    -18.04400000    -30.09000000
      3.39970000    359.82400000      0.53660000    -14.10300000    -16.60800000    -26.79900000
      2.95990000    878.64000000     -0.58190000    -13.62500000    -16.64100000    -27.91800000
      3.25000000    711.28000000     -0.41570000    -13.93100000    -15.58100000    -25.96400000
      1.06910000     65.68880000      0.27190000    -14.20100000    -15.73400000    -25.00300000
      3.39970000    457.72960000     -0.00310000    -13.32200000    -14.26700000    -26.32700000
      2.47140000     65.68880000      0.08500000    -13.13500000    -14.22400000    -27.40000000
      3.39970000    457.72960000     -0.00360000    -14.27200000    -13.13600000    -25.95300000
      2.64950000     65.68880000      0.01710000    -14.50000000    -13.22800000    -24.89100000
      2.64950000     65.68880000      0.01710000    -13.75600000    -12.19300000    -26.13300000
      3.39970000    457.72960000     -0.06450000    -15.54700000    -13.16700000    -26.74200000
      2.64950000     65.68880000      0.03520000    -15.28600000    -13.25000000    -27.79700000
      2.64950000     65.68880000      0.03520000    -16.13600000    -14.03400000    -26.44500000
      3.39970000    359.82400000      0.69510000    -16.38600000    -11.92300000    -26.54800000
      2.95990000    878.64000000     -0.60860000    -16.10300000    -11.07000000    -25.69100000
      3.25000000    711.28000000     -0.94070000    -17.45200000    -11.82200000    -27.34300000
      1.06910000     65.68880000      0.42510000    -18.05800000    -11.01800000    -27.27000000
      1.06910000     65.68880000      0.42510000    -17.64800000    -12.55000000    -28.01500000
      3.39970000    359.82400000      0.59730000    -12.00700000    -13.91800000    -25.57800000
      2.95990000    878.64000000     -0.56790000    -11.26900000    -13.00000000    -25.98000000
      3.25000000    711.28000000     -0.41570000    -11.67200000    -14.67400000    -24.54800000
      1.06910000     65.68880000      0.27190000    -12.23900000    -15.47700000    -24.31300000
      3.39970000    457.72960000     -0.02520000    -10.50300000    -14.39100000    -23.72800000
      2.47140000     65.68880000      0.06980000    -10.29100000    -15.26000000    -23.10600000
      2.47140000     65.68880000      0.06980000     -9.65300000    -14.19600000    -24.38200000
      3.39970000    359.82400000      0.59730000    -10.72600000    -13.17300000    -22.82400000
      2.95990000    878.64000000     -0.56790000    -11.81100000    -12.57800000    -22.75100000
      3.25000000    711.28000000     -0.41570000     -9.68100000    -12.78000000    -22.12600000
      1.06910000     65.68880000      0.27190000     -8.81100000    -13.29100000    -22.16400000
      3.39970000    457.72960000     -0.05180000     -9.76100000    -11.63600000    -21.26300000
      2.47140000     65.68880000      0.09220000    -10.64600000    -11.70300000    -20.63100000
      3.39970000    457.72960000     -0.11020000     -8.51800000    -11.57700000    -20.36200000
      2.64950000     65.68880000      0.04570000     -7.68800000    -11.68600000    -21.06000000
      2.64950000     65.68880000      0.04570000     -8.47200000    -10.59400000    -19.89400000
      3.39970000    457.72960000      0.35310000     -8.42400000    -12.66300000    -19.28100000
      2.64950000     65.68880000     -0.03610000     -8.54700000    -13.64800000    -19.73200000
      3.39970000    457.72960000     -0.41210000     -7.05000000    -12.57400000    -18.61900000
      2.64950000     65.68880000      0.10000000     -6.92700000    -11.59000000    -18.16700000
      2.64950000     65.68880000      0.10000000     -6.96700000    -13.34000000    -17.84800000
      2.64950000     65.68880000      0.10000000     -6.27400000    -12.72900000    -19.36900000
      3.39970000    457.72960000     -0.41210000     -9.54200000    -12.52300000    -18.27300000
      2.64950000     65.68880000      0.10000000    -10.50300000    -12.61700000    -18.78000000
      2.64950000     65.68880000      0.10000000     -9.45200000    -13.30500000    -17.51900000
      2.64950000     65.68880000      0.10000000     -9.47900000    -11.54600000    -17.79300000
      3.39970000    359.82400000      0.59730000     -9.87900000    -10.32500000    -22.05800000
      2.95990000    878.64000000     -0.56790000    -10.01800000     -9.27300000    -21.43800000
      3.25000000    711.28000000     -0.51630000     -9.75700000    -10.37400000    -23.39100000
      1.06910000     65.68880000      0.29360000     -9.48900000    -11.24300000    -23.82900000
      3.39970000    457.72960000      0.03810000     -9.94400000     -9.19100000    -24.24500000
      2.47140000     65.68880000      0.08800000     -9.22300000     -8.42800000    -23.95300000
      3.39970000    457.72960000     -0.03030000     -9.74600000     -9.50900000    -25.73900000
      2.64950000     65.68880000     -0.01220000    -10.10700000    -10.52300000    -25.91100000
      2.64950000     65.68880000     -0.01220000    -10.35600000     -8.80600000    -26.30500000
      3.39970000    359.82400000      0.79940000     -8.28100000     -9.40200000    -26.19800000
      2.95990000    878.64000000     -0.80140000     -7.39800000     -8.99500000    -25.41300000
      2.95990000    878.64000000     -0.80140000     -7.99600000     -9.72900000    -27.35700000
      3.39970000    359.82400000      0.53660000    -11.33100000     -8.57900000    -24.04200000
      2.95990000    878.64000000     -0.58190000    -11.55200000     -7.43400000    -24.38600000
      3.25000000    711.28000000     -0.41570000    -12.25100000     -9.34300000    -23.47900000
      1.06910000     65.68880000      0.27190000    -12.10000000    -10.33000000    -23.32600000
      3.39970000    457.72960000      0.03370000    -13.54100000     -8.80000000    -23.18100000
      2.47140000     65.68880000      0.08230000    -13.89500000     -8.27400000    -24.06800000
      3.39970000    457.72960000     -0.18250000    -14.49400000     -9.93600000    -22.88000000
      2.64950000     65.68880000      0.06030000    -14.15800000    -10.46600000    -21.98900000
      2.64950000     65.68880000      0.06030000    -15.49400000     -9.53700000    -22.70900000
      2.64950000     65.68880000      0.06030000    -14.51800000    -10.62400000    -23.72500000
      3.39970000    359.82400000      0.59730000    -13.48800000     -7.74800000    -22.04100000
      2.95990000    878.64000000     -0.56790000    -14.40600000     -6.97700000    -21.91900000
      3.25000000    711.28000000     -0.41570000    -12.41600000     -7.72600000    -21.24500000
      1.06910000     65.68880000      0.27190000    -11.74700000     -8.46300000    -21.41700000
      3.39970000    457.72960000     -0.02750000    -12.12200000     -6.75000000    -20.18000000
      2.47140000     65.68880000      0.11230000    -12.85100000     -5.94000000    -20.19200000
      3.39970000    457.72960000     -0.00500000    -12.19700000     -7.46400000    -18.80500000
      2.64950000     65.68880000      0.03390000    -11.56500000     -8.34900000    -18.87200000
      2.64950000     65.68880000      0.03390000    -11.87400000     -6.85000000    -17.96400000
      3.39970000    359.82400000     -0.14150000    -13.62700000     -7.96400000    -18.46600000
      3.39970000    359.82400000     -0.16380000    -14.57600000     -7.27000000    -17.75800000
      2.51060000     62.76000000      0.20620000    -14.30300000     -6.27900000    -17.39400000
      3.25000000    711.28000000     -0.34180000    -15.70000000     -8.00600000    -17.66200000
      1.06910000     65.68880000      0.34120000    -16.54000000     -7.72000000    -17.18000000
      3.39970000    359.82400000      0.13800000    -15.49700000     -9.22700000    -18.25200000
      3.39970000    359.82400000     -0.26010000    -16.32600000    -10.31500000    -18.33500000
      2.59960000     62.76000000      0.15720000    -17.33300000    -10.21000000    -17.93100000
      3.39970000    359.82400000     -0.11340000    -15.86000000    -11.43400000    -18.90000000
      2.59960000     62.76000000      0.14170000    -16.49100000    -12.32000000    -18.97400000
      3.39970000    359.82400000     -0.19720000    -14.56600000    -11.48600000    -19.40100000
      2.59960000     62.76000000      0.14470000    -14.18500000    -12.39300000    -19.87000000
      3.39970000    359.82400000     -0.23870000    -13.73500000    -10.40800000    -19.32200000
      2.59960000     62.76000000      0.17000000    -12.72300000    -10.51500000    -19.71300000
      3.39970000    359.82400000      0.12430000    -14.19600000     -9.24600000    -18.73700000
      3.39970000    359.82400000      0.59730000    -10.71100000     -6.18100000    -20.37500000
      2.95990000    878.64000000     -0.56790000     -9.75600000     -6.64400000    -19.75100000
      3.25000000    711.28000000     -0.25480000    -10.56300000     -5.19200000    -21.27800000
      3.39970000    457.72960000      0.01920000    -11.62700000     -4.57900000    -22.08400000
      2.47140000     65.68880000      0.03910000    -12.28400000     -4.00700000    -21.42900000
      2.47140000     65.68880000      0.03910000    -12.19900000     -5.36600000    -22.57500000
      3.39970000    457.72960000      0.01890000    -10.89700000     -3.71800000    -23.05500000
      2.64950000     65.68880000      0.02130000    -11.08500000     -2.67800000    -22.78900000
      2.64950000     65.68880000      0.02130000    -11.29800000     -3.91700000    -24.04900000
      3.39970000    457.72960000     -0.00700000     -9.43400000     -4.04300000    -22.99300000
      2.64950000     65.68880000      0.02530000     -8.82200000     -3.14700000    -22.89500000
      2.64950000     65.68880000      0.02530000     -9.15800000     -4.57200000    -23.90500000
      3.39970000    457.72960000     -0.02660000     -9.22300000     -4.96100000    -21.76600000
      2.47140000     65.68880000      0.06410000     -8.84900000     -5.91700000    -22.13300000
      3.39970000    359.82400000      0.58960000     -8.25000000     -4.40000000    -20.71500000
      2.95990000    878.64000000     -0.57480000     -7.05800000     -4.63800000    -20.82000000
      3.25000000    711.28000000     -0.41570000     -8.74000000     -3.67200000    -19.70800000
      1.06910000     65.68880000      0.27190000     -9.71900000     -3.42400000    -19.67300000
      3.39970000    457.72960000     -0.03890000     -7.85100000     -3.16300000    -18.64700000
      2.47140000     65.68880000      0.10070000     -6.80900000     -3.24400000    -18.95500000
      3.39970000    457.72960000      0.36540000     -8.16400000     -1.67700000    -18.34900000
      2.47140000     65.68880000      0.00430000     -9.20200000     -1.60500000    -18.02300000
      3.39970000    457.72960000     -0.24380000     -7.21800000     -1.08800000    -17.22900000
      2.64950000     65.68880000      0.06420000     -6.18000000     -1.15900000    -17.55500000
      2.64950000     65.68880000      0.06420000     -7.47200000     -0.04300000    -17.05100000
      2.64950000     65.68880000      0.06420000     -7.34800000     -1.65500000    -16.30700000
      3.06650000    880.31360000     -0.67610000     -7.98700000     -0.95900000    -19.54500000
      1.24730000     41.84000000      0.41020000     -8.17500000     -0.03000000    -19.39100000
      3.39970000    359.82400000      0.59730000     -7.96000000     -3.96400000    -17.37400000
      2.95990000    878.64000000     -0.56790000     -6.95900000     -4.26600000    -16.68300000
      3.25000000    711.28000000     -0.41570000     -9.17800000     -4.29500000    -17.02700000
      1.06910000     65.68880000      0.27190000     -9.95000000     -3.94100000    -17.57400000
      3.39970000    457.72960000      0.02130000     -9.48100000     -5.04500000    -15.79200000
      2.47140000     65.68880000      0.11240000     -8.83800000     -4.71900000    -14.97400000
      3.39970000    457.72960000     -0.12310000    -10.93800000     -4.77700000    -15.40500000
      2.47140000     65.68880000      0.11120000    -11.62100000     -4.96000000    -16.23500000
      2.47140000     65.68880000      0.11120000    -11.24700000     -5.37000000    -14.54400000
      3.53240000   1181.56160000     -0.31190000    -11.17400000     -3.04600000    -14.93300000
      1.08900000     51.88160000      0.19330000    -12.47400000     -3.14900000    -14.67100000
      3.39970000    359.82400000      0.59730000     -9.16900000     -6.56000000    -15.82800000
      2.95990000    878.64000000     -0.56790000     -9.05600000     -7.20500000    -14.79500000
      3.25000000    711.28000000     -0.41570000     -9.04600000     -7.12700000    -17.01900000
      1.06910000     65.68880000      0.27190000     -9.10000000     -6.57700000    -17.86500000
      3.39970000    457.72960000     -0.02520000     -8.82900000     -8.56000000    -17.14100000
      2.47140000     65.68880000      0.06980000     -9.74300000     -9.06600000    -16.82900000
      2.47140000     65.68880000      0.06980000     -8.63200000     -8.78200000    -18.19000000
      3.39970000    359.82400000      0.59730000     -7.68600000     -9.06300000    -16.31300000
      2.95990000    878.64000000     -0.56790000     -7.76400000    -10.16800000    -15.75600000
      3.25000000    711.28000000     -0.41570000     -6.57700000     -8.32500000    -16.29500000
      1.06910000     65.68880000      0.27190000     -6.56200000     -7.44300000    -16.78600000
      3.39970000    457.72960000      0.03370000     -5.33700000     -8.75500000    -15.56400000
      2.47140000     65.68880000      0.08230000     -4.94000000     -9.65900000    -16.02500000
      3.39970000    457.72960000     -0.18250000     -4.28000000     -7.65800000    -15.65200000
      2.64950000     65.68880000      0.06030000     -4.66000000     -6.74900000    -15.18600000
      2.64950000     65.68880000      0.06030000     -3.37700000     -7.98100000    -15.13400000
      2.64950000     65.68880000      0.06030000     -4.04700000     -7.46000000    -16.69800000
      3.39970000    359.82400000      0.59730000     -5.59200000     -9.02900000    -14.09700000
      2.95990000    878.64000000     -0.56790000     -4.90800000     -9.83600000    -13.46900000
      3.25000000    711.28000000     -0.41570000     -6.55700000     -8.30300000    -13.51200000
      1.06910000     65.68880000      0.27190000     -6.98100000     -7.51600000    -13.98200000
      3.39970000    457.72960000      0.03370000     -6.93800000     -8.56900000    -12.10900000
      2.47140000     65.68880000      0.08230000     -6.02300000     -8.45500000    -11.52900000
      3.39970000    457.72960000     -0.18250000     -7.95000000     -7.53100000    -11.63300000
      2.64950000     65.68880000      0.06030000     -8.87500000     -7.63900000    -12.19900000
      2.64950000     65.68880000      0.06030000     -8.15300000     -7.68100000    -10.57300000
      2.64950000     65.68880000      0.06030000     -7.54500000     -6.53100000    -11.78700000
      3.39970000    359.82400000      0.59730000     -7.46300000    -10.00100000    -11.85900000
      2.95990000    878.64000000     -0.56790000     -7.35800000    -10.48500000    -10.72500000
      3.25000000    711.28000000     -0.41570000     -7.88300000    -10.73800000    -12.91200000
      1.06910000     65.68880000      0.27190000     -7.96400000    -10.28100000    -13.80900000
      3.39970000    457.72960000     -0.02490000     -8.26000000    -12.12600000    -12.81500000
      2.47140000     65.68880000      0.08430000     -9.12600000    -12.22900000    -12.16200000
      3.39970000    457.72960000      0.21170000     -8.61800000    -12.67500000    -14.18700000
      2.47140000     65.68880000      0.03520000     -9.08400000    -13.65300000    -14.06900000
      2.47140000     65.68880000      0.03520000     -9.32000000    -11.99500000    -14.67000000
      3.06650000    880.31360000     -0.65460000     -7.43500000    -12.80200000    -15.00000000
      1.24730000     41.84000000      0.42750000     -7.67500000    -13.14900000    -15.86200000
      3.39970000    359.82400000      0.59730000     -7.14000000    -12.98400000    -12.20000000
      2.95990000    878.64000000     -0.56790000     -7.38400000    -14.08100000    -11.72900000
      3.25000000    711.28000000     -0.41570000     -5.89200000    -12.54000000    -12.32300000
      1.06910000     65.68880000      0.27190000     -5.68800000    -11.60300000    -12.63900000
      3.39970000    457.72960000     -0.02520000     -4.75100000    -13.43700000    -11.98900000
      2.47140000     65.68880000      0.06980000     -3.90800000    -12.79200000    -11.74100000
      2.47140000     65.68880000      0.06980000     -5.04600000    -14.00400000    -11.10600000
      3.39970000    359.82400000      0.59730000     -4.32000000    -14.42400000    -13.10000000
      2.95990000    878.64000000     -0.56790000     -3.34600000    -15.12200000    -12.94900000
      3.25000000    711.28000000     -0.41570000     -5.03000000    -14.48000000    -14.21900000
      1.06910000     65.68880000      0.27190000     -5.89000000    -13.95600000    -14.29600000
      3.39970000    457.72960000     -0.05180000     -4.61000000    -15.27200000    -15.34400000
      2.47140000     65.68880000      0.09220000     -4.12400000    -16.18600000    -15.00200000
      3.39970000    457.72960000     -0.11020000     -5.80900000    -15.64700000    -16.17400000
      2.64950000     65.68880000      0.04570000     -6.21400000    -14.70200000    -16.53500000
      2.64950000     65.68880000      0.04570000     -5.43800000    -16.22900000    -17.01800000
      3.39970000    457.72960000      0.35310000     -6.89600000    -16.42200000    -15.46700000
      2.64950000     65.68880000     -0.03610000     -7.27000000    -15.88000000    -14.59900000
      3.39970000    457.72960000     -0.41210000     -7.99500000    -16.57900000    -16.46700000
      2.64950000     65.68880000      0.10000000     -7.62200000    -17.12200000    -17.33500000
      2.64950000     65.68880000      0.10000000     -8.81900000    -17.13400000    -16.01800000
      2.64950000     65.68880000      0.10000000     -8.34700000    -15.59500000    -16.77800000
      3.39970000    457.72960000     -0.41210000     -6.42200000    -17.76900000    -14.97600000
      2.64950000     65.68880000      0.10000000     -5.59900000    -17.63200000    -14.27500000
      2.64950000     65.68880000      0.10000000     -7.24300000    -18.28300000    -14.47600000
      2.64950000     65.68880000      0.10000000     -6.08200000    -18.36600000    -15.82200000
      3.39970000    359.82400000      0.59730000     -3.63000000    -14.50600000    -16.23300000
      2.95990000    878.64000000     -0.56790000     -3.85400000    -13.31900000    -16.51300000
      3.25000000    711.28000000     -0.25480000     -2.55300000    -15.16200000    -16.73100000
      3.39970000    457.72960000      0.01920000     -2.01500000    -16.49400000    -16.41600000
      2.47140000     65.68880000      0.03910000     -2.82500000    -17.22300000    -16.40400000
      2.47140000     65.68880000      0.03910000     -1.53200000    -16.47300000    -15.43900000
      3.39970000    457.72960000      0.01890000     -1.03100000    -16.73600000    -17.54100000
      2.64950000     65.68880000      0.02130000     -1.54900000    -17.20700000    -18.37600000
      2.64950000     65.68880000      0.02130000     -0.23700000    -17.39400000    -17.18900000
      3.39970000    457.72960000     -0.00700000     -0.48000000    -15.38500000    -17.92600000
      2.64950000     65.68880000      0.02530000     -0.30000000    -15.37600000    -19.00100000
      2.64950000     65.68880000      0.02530000      0.43800000    -15.11800000    -17.40200000
      3.39970000    457.72960000     -0.02660000     -1.60100000    -14.38000000    -17.57200000
      2.47140000     65.68880000      0.06410000     -1.20900000    -13.55200000    -16.98200000
      3.39970000    359.82400000      0.58960000     -2.30000000    -13.83100000    -18.81900000
      2.95990000    878.64000000     -0.57480000     -2.78900000    -14.58100000    -19.67800000
      3.25000000    711.28000000     -0.41570000     -2.34900000    -12.51800000    -18.92000000
      1.06910000     65.68880000      0.27190000     -1.99300000    -11.94300000    -18.17000000
      3.39970000    457.72960000     -0.05970000     -3.02200000    -11.87000000    -20.01600000
      2.47140000     65.68880000      0.08690000     -4.05800000    -12.20900000    -20.02700000
      3.39970000    457.72960000      0.13030000     -2.98500000    -10.31700000    -19.85500000
      2.64950000     65.68880000      0.01870000     -1.95600000    -10.01500000    -19.65800000
      3.39970000    457.72960000     -0.32040000     -3.48500000     -9.61800000    -21.09800000
      2.64950000     65.68880000      0.08820000     -4.51400000     -9.91900000    -21.29600000
      2.64950000     65.68880000      0.08820000     -3.44500000     -8.53900000    -20.95000000
      2.64950000     65.68880000      0.08820000     -2.85700000     -9.89100000    -21.94600000
      3.39970000    457.72960000     -0.04300000     -3.85400000     -9.91400000    -18.73200000
      2.64950000     65.68880000      0.02360000     -4.84200000    -10.33900000    -18.91000000
      2.64950000     65.68880000      0.02360000     -3.43400000    -10.34000000    -17.82100000
      3.39970000    457.72960000     -0.06600000     -3.97200000     -8.40800000    -18.57800000
      2.64950000     65.68880000      0.01860000     -4.39200000     -7.98100000    -19.48900000
      2.64950000     65.68880000      0.01860000     -4.62400000     -8.17800000    -17.73500000
      2.64950000     65.68880000      0.01860000     -2.98500000     -7.98200000    -18.39900000
      3.39970000    359.82400000      0.59730000     -2.54800000    -12.26100000    -21.38200000
      2.95990000    878.64000000     -0.56790000     -3.36100000    -12.37700000    -22.32200000
      3.25000000    711.28000000     -0.41570000     -1.25000000    -12.49500000    -21.54200000
      1.06910000     65.68880000      0.27190000     -0.58600000    -12.34500000    -20.79600000
      3.39970000    457.72960000      0.03370000     -0.75800000    -12.86400000    -22.81100000
      2.47140000     65.68880000      0.08230000     -1.07800000    -12.07800000    -23.49500000
      3.39970000    457.72960000     -0.18250000      0.79000000    -12.92100000    -22.81200000
      2.64950000     65.68880000      0.06030000      1.12600000    -13.70900000    -22.13800000
      2.64950000     65.68880000      0.06030000      1.14600000    -13.13000000    -23.82100000
      2.64950000     65.68880000      0.06030000      1.19000000    -11.96300000    -22.47800000
      3.39970000    359.82400000      0.59730000     -1.35000000    -14.20600000    -23.33200000
      2.95990000    878.64000000     -0.56790000     -1.30000000    -14.45800000    -24.52900000
      3.25000000    711.28000000     -0.41570000     -1.73000000    -15.09100000    -22.43500000
      1.06910000     65.68880000      0.27190000     -1.72500000    -14.82500000    -21.46100000
      3.39970000    457.72960000     -0.05180000     -2.13000000    -16.48000000    -22.78500000
      2.47140000     65.68880000      0.09220000     -1.70700000    -16.74900000    -23.75300000
      3.39970000    457.72960000     -0.11020000     -1.61700000    -17.49000000    -21.72000000
      2.64950000     65.68880000      0.04570000     -2.11400000    -17.16800000    -20.80500000
      2.64950000     65.68880000      0.04570000     -1.92400000    -18.50800000    -21.96000000
      3.39970000    457.72960000      0.35310000     -0.09700000    -17.44900000    -21.51700000
      2.64950000     65.68880000     -0.03610000      0.16700000    -16.45200000    -21.16500000
      3.39970000    457.72960000     -0.41210000      0.38200000    -18.47400000    -20.52500000
      2.64950000     65.68880000      0.10000000      0.11800000    -19.47200000    -20.87700000
      2.64950000     65.68880000      0.10000000      1.46400000    -18.40100000    -20.42000000
      2.64950000     65.68880000      0.10000000     -0.08900000    -18.29300000    -19.55900000
      3.39970000    457.72960000     -0.41210000      0.64400000    -17.59200000    -22.82400000
      2.64950000     65.68880000      0.10000000      0.36500000    -16.77700000    -23.49200000
      2.64950000     65.68880000      0.10000000      1.71800000    -17.55800000    -22.63900000
      2.64950000     65.68880000      0.10000000      0.38500000    -18.54400000    -23.28700000
      3.39970000    359.82400000      0.59730000     -3.62400000    -16.61700000    -22.91000000
      2.95990000    878.64000000     -0.56790000     -4.11600000    -17.52600000    -23.49800000
      3.25000000    711.28000000     -0.41570000     -4.31700000    -15.65900000    -22.39400000
      1.06910000     65.68880000      0.27190000     -3.85900000    -14.82000000    -22.07000000
      3.39970000    457.72960000     -0.02750000     -5.74200000    -15.75100000    -22.25900000
      2.47140000     65.68880000      0.11230000     -6.11700000    -16.64300000    -22.76100000
      3.39970000    457.72960000     -0.00500000     -6.09600000    -15.84100000    -20.77500000
      2.64950000     65.68880000      0.03390000     -5.58100000    -15.09500000    -20.17000000
      2.64950000     65.68880000      0.03390000     -7.16600000    -15.63300000    -20.77400000
      3.39970000    359.82400000     -0.14150000     -5.92000000    -17.11400000    -20.10300000
      3.39970000    359.82400000     -0.16380000     -4.88000000    -17.47100000    -19.26500000
      2.51060000     62.76000000      0.20620000     -4.06100000    -16.76100000    -19.15100000
      3.25000000    711.28000000     -0.34180000     -5.12800000    -18.72900000    -18.72500000
      1.06910000     65.68880000      0.34120000     -4.53500000    -19.22400000    -18.07500000
      3.39970000    359.82400000      0.13800000     -6.34200000    -19.17600000    -19.20100000
      3.39970000    359.82400000     -0.26010000     -7.02000000    -20.34200000    -18.90900000
      2.59960000     62.76000000      0.15720000     -6.57400000    -21.02500000    -18.18600000
      3.39970000    359.82400000     -0.11340000     -8.18800000    -20.56600000    -19.53200000
      2.59960000     62.76000000      0.14170000     -8.71900000    -21.50100000    -19.35200000
      3.39970000    359.82400000     -0.19720000     -8.74500000    -19.62500000    -20.41200000
      2.59960000     62.76000000      0.14470000     -9.68300000    -19.82400000    -20.93000000
      3.39970000    359.82400000     -0.23870000     -8.11600000    -18.41300000    -20.64700000
      2.59960000     62.76000000      0.17000000     -8.64000000    -17.65200000    -21.22500000
      3.39970000    359.82400000      0.12430000     -6.86400000    -18.20100000    -20.07000000
      3.39970000    359.82400000      0.59730000     -6.48200000    -14.55800000    -22.84600000
      2.95990000    878.64000000     -0.56790000     -7.59200000    -14.36200000    -22.51900000
      3.25000000    711.28000000     -0.41570000     -5.81700000    -13.74500000    -23.64000000
      1.06910000     65.68880000      0.27190000     -4.81000000    -13.71800000    -23.56600000
      3.39970000    457.72960000     -0.02490000     -6.47700000    -12.78800000    -24.54700000
      2.47140000     65.68880000      0.08430000     -7.32000000    -12.29100000    -24.06700000
      3.39970000    457.72960000      0.21170000     -5.41400000    -11.72300000    -24.90600000
      2.47140000     65.68880000      0.03520000     -4.51100000    -12.17300000    -25.31800000
      2.47140000     65.68880000      0.03520000     -5.80100000    -10.98100000    -25.60500000
      3.06650000    880.31360000     -0.65460000     -5.10300000    -11.08500000    -23.65300000
      1.24730000     41.84000000      0.42750000     -4.44200000    -10.40400000    -23.79600000
      3.39970000    359.82400000      0.59730000     -7.09400000    -13.60500000    -25.76600000
      2.95990000    878.64000000     -0.56790000     -7.66100000    -13.08000000    -26.73100000
      3.25000000    711.28000000     -0.34810000     -7.02800000    -14.93600000    -25.62500000
      1.06910000     65.68880000      0.27640000     -6.73400000    -15.22600000    -24.70400000
      3.39970000    457.72960000     -0.29030000     -7.24700000    -15.97600000    -26.65000000
      2.47140000     65.68880000      0.14380000     -7.09100000    -15.51800000    -27.62700000
      3.39970000    457.72960000     -0.05380000     -6.17700000    -17.03600000    -26.43400000
      2.64950000     65.68880000      0.04820000     -5.19200000    -16.57000000    -26.46300000
      2.64950000     65.68880000      0.04820000     -6.32500000    -17.51000000    -25.46400000
      3.39970000    457.72960000      0.02270000     -6.27400000    -18.08800000    -27.53400000
      2.64950000     65.68880000      0.01340000     -7.25900000    -18.55500000    -27.50500000
      2.64950000     65.68880000      0.01340000     -6.12500000    -17.61400000    -28.50400000
      3.39970000    457.72960000     -0.03920000     -5.20200000    -19.15000000    -27.31700000
      2.64950000     65.68880000      0.06110000     -4.21700000    -18.68400000    -27.34700000
      2.64950000     65.68880000      0.06110000     -5.35000000    -19.62500000    -26.34700000
      3.39970000    457.72960000     -0.01760000     -5.29900000    -20.20200000    -28.41700000
      1.96000000     65.68880000      0.11210000     -6.28300000    -20.66900000    -28.38900000
      1.96000000     65.68880000      0.11210000     -5.15000000    -19.72800000    -29.38800000
      3.25000000    711.28000000     -0.37410000     -4.26500000    -21.22600000    -28.20900000
      1.06910000     65.68880000      0.33740000     -4.40300000    -21.66500000    -27.31000000
      1.06910000     65.68880000      0.33740000     -4.32900000    -21.92300000    -28.93700000
      1.06910000     65.68880000      0.33740000     -3.35300000    -20.79400000    -28.23600000
      3.39970000    359.82400000      0.84880000     -8.64900000    -16.59200000    -26.66500000
      2.95990000    878.64000000     -0.82520000     -9.49400000    -16.15900000    -27.51100000
      2.95990000    878.64000000     -0.82520000     -8.94800000    -17.48300000    -25.87200000
      3.25000000    711.28000000     -0.20200000    -26.30800000    -26.93900000     10.41100000
      1.06910000     65.68880000      0.31200000    -26.25100000    -27.20100000      9.43700000
      1.06910000     65.68880000      0.31200000    -27.04800000    -27.30900000     10.99100000
      3.39970000    457.72960000     -0.01200000    -25.06700000    -27.32600000     11.11200000
      1.96000000     65.68880000      0.10000000    -24.33400000    -27.66200000     10.37800000
      1.96000000     65.68880000      0.10000000    -25.28800000    -28.14000000     11.80300000
      3.39970000    457.72960000     -0.12100000    -24.64000000    -26.07300000     11.82100000
      2.64950000     65.68880000      0.10000000    -23.68300000    -25.75000000     11.41100000
      2.64950000     65.68880000      0.10000000    -24.52400000    -26.29500000     12.88200000
      3.39970000    457.72960000     -0.11500000    -25.71700000    -25.03000000     11.60100000
      2.64950000     65.68880000      0.10000000    -25.17700000    -24.10400000     11.40600000
      2.64950000     65.68880000      0.10000000    -26.44500000    -24.86500000     12.39500000
      3.39970000    457.72960000      0.10000000    -26.42400000    -25.49300000     10.33600000
      1.96000000     65.68880000      0.10000000    -27.47200000    -25.21100000     10.23500000
      3.39970000    359.82400000      0.52600000    -25.65000000    -25.00200000      9.12600000
      2.95990000    878.64000000     -0.50000000    -24.54800000    -25.49600000      8.81700000
      3.25000000    711.28000000     -0.41570000    -26.19500000    -24.03600000      8.42400000
      1.06910000     65.68880000      0.27190000    -27.10400000    -23.63600000      8.61000000
      3.39970000    457.72960000     -0.02490000    -25.44600000    -23.54100000      7.28600000
      2.47140000     65.68880000      0.08430000    -24.45300000    -23.99100000      7.28100000
      3.39970000    457.72960000      0.21170000    -26.15100000    -23.89000000      5.96400000
      2.47140000     65.68880000      0.03520000    -27.04800000    -23.27400000      5.90100000
      2.47140000     65.68880000      0.03520000    -25.47200000    -23.62600000      5.15300000
      3.06650000    880.31360000     -0.65460000    -26.51000000    -25.26200000      5.85400000
      1.24730000     41.84000000      0.42750000    -26.94400000    -25.41300000      5.01100000
      3.39970000    359.82400000      0.59730000    -25.34200000    -22.06200000      7.49500000
      2.95990000    878.64000000     -0.56790000    -26.29900000    -21.40100000      7.16300000
      3.25000000    711.28000000     -0.25480000    -24.21200000    -21.52300000      8.05300000
      3.39970000    457.72960000      0.01920000    -22.91500000    -22.13000000      8.37000000
      2.47140000     65.68880000      0.03910000    -22.51600000    -22.57700000      7.45900000
      2.47140000     65.68880000      0.03910000    -23.07600000    -22.90900000      9.11600000
      3.39970000    457.72960000      0.01890000    -22.05500000    -21.00900000      8.88800000
      2.64950000     65.68880000      0.02130000    -21.18500000    -20.93100000      8.23600000
      2.64950000     65.68880000      0.02130000    -21.73100000    -21.27700000      9.89400000
      3.39970000    457.72960000     -0.00700000    -22.83400000    -19.75200000      8.90200000
      2.64950000     65.68880000      0.02530000    -22.25700000    -19.02900000      8.32500000
      2.64950000     65.68880000      0.02530000    -23.01800000    -19.35500000      9.90000000
      3.39970000    457.72960000     -0.02660000    -24.16400000    -20.03600000      8.19900000
      2.47140000     65.68880000      0.06410000    -25.02000000    -19.70300000      8.78600000
      3.39970000    359.82400000      0.58960000    -24.20500000    -19.38700000      6.83700000
      2.95990000    878.64000000     -0.57480000    -23.57700000    -19.91000000      5.88200000
      3.25000000    711.28000000     -0.41570000    -25.00200000    -18.32600000      6.67900000
      1.06910000     65.68880000      0.27190000    -25.62500000    -17.99300000      7.40100000
      3.39970000    457.72960000      0.01430000    -25.04800000    -17.67200000      5.36300000
      2.47140000     65.68880000      0.10480000    -24.77000000    -18.38000000      4.58200000
      3.39970000    457.72960000     -0.20410000    -26.46600000    -17.16800000      5.08500000
      2.64950000     65.68880000      0.07970000    -27.17900000    -17.98700000      5.17500000
      2.64950000     65.68880000      0.07970000    -26.69100000    -16.40700000      5.83200000
      3.39970000    359.82400000      0.71300000    -26.60600000    -16.55900000      3.72600000
      2.95990000    878.64000000     -0.59310000    -25.62800000    -16.33100000      3.02500000
      3.25000000    711.28000000     -0.91910000    -27.82700000    -16.32400000      3.32800000
      1.06910000     65.68880000      0.41960000    -27.98900000    -15.91400000      2.41900000
      1.06910000     65.68880000      0.41960000    -28.60400000    -16.55400000      3.93100000
      3.39970000    359.82400000      0.59730000    -24.01800000    -16.59300000      5.34200000
      2.95990000    878.64000000     -0.56790000    -24.27600000    -15.48700000      5.78800000
      3.25000000    711.28000000     -0.41570000    -22.79600000    -16.96200000      4.92500000
      1.06910000     65.68880000      0.27190000    -22.62400000    -17.93100000      4.69600000
      3.39970000    457.72960000     -0.02750000    -21.65700000    -16.01700000      4.88000000
      2.47140000     65.68880000      0.11230000    -21.63200000    -15.44000000      5.80400000
      3.39970000    457.72960000     -0.00500000    -20.31200000    -16.75500000      4.72400000
      2.64950000     65.68880000      0.03390000    -20.30700000    -17.43900000      3.87500000
      2.64950000     65.68880000      0.03390000    -19.52600000    -16.01100000      4.59500000
      3.39970000    359.82400000     -0.14150000    -19.93300000    -17.58400000      5.95800000
      3.39970000    359.82400000     -0.16380000    -19.79900000    -18.96000000      6.01900000
      2.51060000     62.76000000      0.20620000    -19.97900000    -19.51100000      5.09600000
      3.25000000    711.28000000     -0.34180000    -19.45800000    -19.34200000      7.26600000
      1.06910000     65.68880000      0.34120000    -19.31000000    -20.30000000      7.54800000
      3.39970000    359.82400000      0.13800000    -19.32200000    -18.25100000      8.06900000
      3.39970000    359.82400000     -0.26010000    -18.96600000    -18.15500000      9.41600000
      2.59960000     62.76000000      0.15720000    -18.76100000    -19.07200000      9.96800000
      3.39970000    359.82400000     -0.11340000    -18.89600000    -16.89600000      9.96400000
      2.59960000     62.76000000      0.14170000    -18.59000000    -16.77400000     11.00300000
      3.39970000    359.82400000     -0.19720000    -19.21000000    -15.76200000      9.21400000
      2.59960000     62.76000000      0.14470000    -19.19900000    -14.77000000      9.66600000
      3.39970000    359.82400000     -0.23870000    -19.54600000    -15.86200000      7.86800000
      2.59960000     62.76000000      0.17000000    -19.81600000    -14.94300000      7.34800000
      3.39970000    359.82400000      0.12430000    -19.59400000    -17.11100000      7.26900000
      3.39970000    359.82400000      0.59730000    -21.82600000    -14.96300000      3.77000000
      2.95990000    878.64000000     -0.56790000    -21.30500000    -13.89500000      3.90800000
      3.25000000    711.28000000     -0.51630000    -22.61100000    -15.24700000      2.74600000
      1.06910000     65.68880000      0.29360000    -23.00500000    -16.17200000      2.65200000
      3.39970000    457.72960000      0.03810000    -22.92900000    -14.24400000      1.71500000
      2.47140000     65.68880000      0.08800000    -22.00500000    -13.81100000      1.33200000
      3.39970000    457.72960000     -0.03030000    -23.71800000    -14.89500000      0.51200000
      2.64950000     65.68880000     -0.01220000    -24.64100000    -15.43500000      0.72400000
      2.64950000     65.68880000     -0.01220000    -23.95500000    -13.94400000      0.03500000
      3.39970000    359.82400000      0.79940000    -22.82900000    -15.74400000     -0.44000000
      2.95990000    878.64000000     -0.80140000    -21.63800000    -15.46300000     -0.59300000
      2.95990000    878.64000000     -0.80140000    -23.22200000    -16.85300000     -0.81900000
      3.39970000    359.82400000      0.53660000    -23.77500000    -13.17500000      2.37400000
      2.95990000    878.64000000     -0.58190000    -23.54900000    -12.01900000      2.09100000
      3.25000000    711.28000000     -0.41570000    -24.77600000    -13.53900000      3.19700000
      1.06910000     65.68880000      0.27190000    -25.11300000    -14.49100000      3.18000000
      3.39970000    457.72960000      0.03370000    -25.52000000    -12.55700000      3.97400000
      2.47140000     65.68880000      0.08230000    -25.88100000    -11.87900000      3.20100000
      3.39970000    457.72960000     -0.18250000    -26.67600000    -13.13700000      4.66600000
      2.64950000     65.68880000      0.06030000    -26.33000000    -13.81200000      5.44900000
      2.64950000     65.68880000      0.06030000    -27.27100000    -12.34000000      5.11100000
      2.64950000     65.68880000      0.06030000    -27.28600000    -13.69100000      3.95300000
      3.39970000    359.82400000      0.59730000    -24.63900000    -11.71600000      4.92600000
      2.95990000    878.64000000     -0.56790000    -24.83000000    -10.47800000      5.00700000
      3.25000000    711.28000000     -0.41570000    -23.67600000    -12.36200000      5.61400000
      1.06910000     65.68880000      0.27190000    -23.62400000    -13.37100000      5.62700000
      3.39970000    457.72960000     -0.08750000    -22.77200000    -11.60700000      6.48900000
      2.47140000     65.68880000      0.09690000    -23.29000000    -10.88800000      7.12400000
      3.39970000    457.72960000      0.29850000    -21.91700000    -12.55600000      7.40000000
      2.64950000     65.68880000     -0.02970000    -21.36200000    -13.24600000      6.76400000
      3.39970000    457.72960000     -0.31920000    -20.96500000    -11.77600000      8.23300000
      2.64950000     65.68880000      0.07910000    -21.51900000    -11.08600000      8.86900000
      2.64950000     65.68880000      0.07910000    -20.38400000    -12.45700000      8.85500000
      2.64950000     65.68880000      0.07910000    -20.29300000    -11.21300000      7.58600000
      3.39970000    457.72960000     -0.31920000    -22.75700000    -13.46800000      8.26300000
      2.64950000     65.68880000      0.07910000    -23.38100000    -14.09600000      7.62800000
      2.64950000     65.68880000      0.07910000    -22.10500000    -14.09800000      8.86800000
      2.64950000     65.68880000      0.07910000    -23.39100000    -12.86900000      8.91600000
      3.39970000    359.82400000      0.59730000    -21.90700000    -10.61500000      5.63400000
      2.95990000    878.64000000     -0.56790000    -21.63600000     -9.52100000      6.03800000
      3.25000000    711.28000000     -0.41570000    -21.46100000    -11.08500000      4.45800000
      1.06910000     65.68880000      0.27190000    -21.74000000    -12.00600000      4.15100000
      3.39970000    457.72960000      0.03370000    -20.54800000    -10.31700000      3.60900000
      2.47140000     65.68880000      0.08230000    -19.73200000     -9.91100000      4.20600000
      3.39970000    457.72960000     -0.18250000    -19.96100000    -11.16400000      2.50000000
      2.64950000     65.68880000      0.06030000    -20.76600000    -11.57000000      1.88800000
      2.64950000     65.68880000      0.06030000    -19.30800000    -10.55000000      1.88000000
      2.64950000     65.68880000      0.06030000    -19.38600000    -11.98200000      2.93300000
      3.39970000    359.82400000      0.59730000    -21.31500000     -9.14100000      3.01800000
      2.95990000    878.64000000     -0.56790000    -20.76700000     -8.06000000      2.88600000
      3.25000000    711.28000000     -0.41570000    -22.59100000     -9.34700000      2.72500000
      1.06910000     65.68880000      0.27190000    -23.00100000    -10.27000000      2.72500000
      3.39970000    457.72960000     -0.00310000    -23.44900000     -8.19000000      2.32700000
      2.47140000     65.68880000      0.08500000    -23.05300000     -7.73000000      1.42200000
      3.39970000    457.72960000     -0.00360000    -24.88400000     -8.65800000      2.05200000
      2.64950000     65.68880000      0.01710000    -24.83700000     -9.41100000      1.26500000
      2.64950000     65.68880000      0.01710000    -25.26000000     -9.11400000      2.96800000
      3.39970000    457.72960000     -0.06450000    -25.83600000     -7.51400000      1.61600000
      2.64950000     65.68880000      0.03520000    -26.81700000     -7.85500000      1.28600000
      2.64950000     65.68880000      0.03520000    -25.94800000     -6.89300000      2.50500000
      3.39970000    359.82400000      0.69510000    -25.17200000     -6.61300000      0.43100000
      2.95990000    878.64000000     -0.60860000    -24.97000000     -5.30800000      0.40100000
      3.25000000    711.28000000     -0.94070000    -24.70300000     -7.35900000     -0.54700000
      1.06910000     65.68880000      0.42510000    -24.26500000     -6.92200000     -1.34500000
      1.06910000     65.68880000      0.42510000    -24.78400000     -8.36400000     -0.49400000
      3.39970000    359.82400000      0.59730000    -23.45200000     -7.06900000      3.43900000
      2.95990000    878.64000000     -0.56790000    -23.30900000     -5.85200000      3.14900000
      3.25000000    711.28000000     -0.41570000    -23.57500000     -7.49700000      4.67800000
      1.06910000     65.68880000      0.27190000    -23.68900000     -8.48800000      4.83300000
      3.39970000    457.72960000      0.02130000    -23.59100000     -6.61300000      5.83100000
      2.47140000     65.68880000      0.11240000    -24.35800000     -5.84700000      5.71700000
      3.39970000    457.72960000     -0.12310000    -23.90700000     -7.44300000      7.08900000
      2.47140000     65.68880000      0.11120000    -24.77200000     -8.07800000      6.89700000
      2.47140000     65.68880000      0.11120000    -23.04800000     -8.06500000      7.33900000
      3.53240000   1181.56160000     -0.31190000    -24.29300000     -6.51300000      8.56900000
      1.08900000     51.88160000      0.19330000    -24.48600000     -7.57100000      9.35200000
      3.39970000    359.82400000      0.59730000    -22.28400000     -5.88600000      6.01800000
      2.95990000    878.64000000     -0.56790000    -22.24300000     -4.66000000      6.27000000
      3.25000000    711.28000000     -0.51630000    -21.23000000     -6.68300000      5.94800000
      1.06910000     65.68880000      0.29360000    -21.36800000     -7.66300000      5.74600000
      3.39970000    457.72960000      0.03970000    -19.86000000     -6.21300000      6.23100000
      2.47140000     65.68880000      0.11050000    -19.89000000     -5.57600000      7.11500000
      3.39970000    457.72960000      0.05600000    -18.87500000     -7.34900000      6.48200000
      2.64950000     65.68880000     -0.01730000    -19.03200000     -8.06900000      5.67900000
      2.64950000     65.68880000     -0.01730000    -17.88000000     -6.91300000      6.38900000
      3.39970000    457.72960000      0.01360000    -18.99700000     -8.05500000      7.82900000
      2.64950000     65.68880000     -0.04250000    -20.01200000     -8.45100000      7.87700000
      2.64950000     65.68880000     -0.04250000    -18.28700000     -8.88100000      7.78900000
      3.39970000    359.82400000      0.80540000    -18.72400000     -7.21300000      9.06100000
      2.95990000    878.64000000     -0.81880000    -18.17900000     -6.11200000      8.97000000
      2.95990000    878.64000000     -0.81880000    -19.08700000     -7.67800000     10.18600000
      3.39970000    359.82400000      0.53660000    -19.30100000     -5.34200000      5.15700000
      2.95990000    878.64000000     -0.58190000    -18.59800000     -4.35300000      5.49900000
      3.25000000    711.28000000     -0.41570000    -19.52500000     -5.66900000      3.88700000
      1.06910000     65.68880000      0.27190000    -20.24700000     -6.33000000      3.63800000
      3.39970000    457.72960000     -0.02490000    -18.77400000     -5.06200000      2.83800000
      2.47140000     65.68880000      0.08430000    -18.25100000     -4.18400000      3.21700000
      3.39970000    457.72960000      0.21170000    -17.67900000     -6.10500000      2.25100000
      2.47140000     65.68880000      0.03520000    -17.09200000     -5.57800000      1.49900000
      2.47140000     65.68880000      0.03520000    -17.03000000     -6.40100000      3.07600000
      3.06650000    880.31360000     -0.65460000    -18.27300000     -7.28000000      1.66100000
      1.24730000     41.84000000      0.42750000    -17.58000000     -7.85800000      1.33200000
      3.39970000    359.82400000      0.59730000    -19.63600000     -4.66000000      1.66300000
      2.95990000    878.64000000     -0.56790000    -19.11900000     -4.30100000      0.59400000
      3.25000000    711.28000000     -0.41570000    -20.93000000     -4.86200000      1.76100000
      1.06910000     65.68880000      0.27190000    -21.36900000     -5.11400000      2.63500000
      3.39970000    457.72960000     -0.02520000    -21.75400000     -4.72400000      0.60500000
      2.47140000     65.68880000      0.06980000    -22.79000000     -4.76100000      0.94300000
      2.47140000     65.68880000      0.06980000    -21.54600000     -3.74300000      0.17800000
      3.39970000    359.82400000      0.59730000    -21.54600000     -5.77800000     -0.45900000
      2.95990000    878.64000000     -0.56790000    -21.99400000     -5.60200000     -1.59200000
      3.25000000    711.28000000     -0.41570000    -21.06100000     -6.95200000     -0.07600000
      1.06910000     65.68880000      0.27190000    -20.74500000     -7.07900000      0.87500000
      3.39970000    457.72960000     -0.02520000    -20.96800000     -8.06500000     -0.97900000
      2.47140000     65.68880000      0.06980000    -20.93200000     -8.98200000     -0.39100000
      2.47140000     65.68880000      0.06980000    -21.85900000     -8.07200000     -1.60700000
      3.39970000    359.82400000      0.59730000    -19.73800000     -7.99800000     -1.86600000
      2.95990000    878.64000000     -0.56790000    -19.68800000     -8.67900000     -2.87400000
      3.25000000    711.28000000     -0.41570000    -18.70400000     -7.27200000     -1.42900000
      1.06910000     65.68880000      0.27190000    -18.77700000     -6.73500000     -0.57700000
      3.39970000    457.72960000      0.01430000    -17.44500000     -7.22300000     -2.17400000
      2.47140000     65.68880000      0.10480000    -17.58900000     -7.55600000     -3.20200000
      3.39970000    457.72960000     -0.20410000    -16.95900000     -5.78700000     -2.19300000
      2.64950000     65.68880000      0.07970000    -17.72900000     -5.11800000     -2.57600000
      2.64950000     65.68880000      0.07970000    -16.73600000     -5.52800000     -1.15800000
      3.39970000    359.82400000      0.71300000    -15.71800000     -5.60500000     -3.00900000
      2.95990000    878.64000000     -0.59310000    -15.23900000     -6.54400000     -3.65400000
      3.25000000    711.28000000     -0.91910000    -15.20900000     -4.35800000     -3.04300000
      1.06910000     65.68880000      0.41960000    -14.37200000     -4.17200000     -3.57700000
      1.06910000     65.68880000      0.41960000    -15.66700000     -3.61500000     -2.53400000
      3.39970000    359.82400000      0.59730000    -16.41000000     -8.10400000     -1.53100000
      2.95990000    878.64000000     -0.56790000    -15.70300000     -7.69500000     -0.56800000
      3.25000000    711.28000000     -0.41570000    -16.17400000     -9.25200000     -2.15800000
      1.06910000     65.68880000      0.27190000    -16.72000000     -9.50700000     -2.96800000
      3.39970000    457.72960000     -0.02750000    -15.21000000    -10.24200000     -1.62000000
      2.47140000     65.68880000      0.11230000    -15.35200000    -10.33100000     -0.54300000
      3.39970000    457.72960000     -0.00500000    -15.40100000    -11.61800000     -2.25300000
      2.64950000     65.68880000      0.03390000    -15.50300000    -11.41900000     -3.32000000
      2.64950000     65.68880000      0.03390000    -14.62200000    -12.36400000     -2.09600000
      3.39970000    359.82400000     -0.14150000    -16.64600000    -12.22300000     -1.82300000
      3.39970000    359.82400000     -0.16380000    -17.85300000    -12.18700000     -2.47200000
      2.51060000     62.76000000      0.20620000    -17.90400000    -11.69500000     -3.44400000
      3.25000000    711.28000000     -0.34180000    -18.79100000    -12.82500000     -1.69300000
      1.06910000     65.68880000      0.34120000    -19.75900000    -12.93100000     -1.96100000
      3.39970000    359.82400000      0.13800000    -18.24500000    -13.25700000     -0.53500000
      3.39970000    359.82400000     -0.26010000    -18.82600000    -13.95500000      0.52200000
      2.59960000     62.76000000      0.15720000    -19.87200000    -14.25300000      0.45400000
      3.39970000    359.82400000     -0.11340000    -18.01600000    -14.22500000      1.60500000
      2.59960000     62.76000000      0.14170000    -18.43700000    -14.75600000      2.45900000
      3.39970000    359.82400000     -0.19720000    -16.65500000    -13.83400000      1.64300000
      2.59960000     62.76000000      0.14470000    -16.02000000    -14.02600000      2.50800000
      3.39970000    359.82400000     -0.23870000    -16.10500000    -13.19700000      0.57600000
      2.59960000     62.76000000      0.17000000    -15.02400000    -13.06000000      0.58200000
      3.39970000    359.82400000      0.12430000    -16.91300000    -12.86000000     -0.52200000
      3.39970000    359.82400000      0.59730000    -13.78400000     -9.74100000     -1.75800000
      2.95990000    878.64000000     -0.56790000    -12.88300000    -10.22000000     -1.03800000
      3.25000000    711.28000000     -0.41570000    -13.54200000     -8.75000000     -2.63900000
      1.06910000     65.68880000      0.27190000    -14.26100000     -8.43500000     -3.27400000
      3.39970000    457.72960000      0.03370000    -12.18700000     -8.17100000     -2.77100000
      2.47140000     65.68880000      0.08230000    -11.49500000     -8.86700000     -2.29700000
      3.39970000    457.72960000     -0.18250000    -11.81600000     -8.05100000     -4.28900000
      2.64950000     65.68880000      0.06030000    -12.49400000     -7.35000000     -4.77500000
      2.64950000     65.68880000      0.06030000    -10.79200000     -7.69100000     -4.38600000
      2.64950000     65.68880000      0.06030000    -11.90300000     -9.02800000     -4.76300000
      3.39970000    359.82400000      0.59730000    -12.03300000     -6.84900000     -2.06800000
      2.95990000    878.64000000     -0.56790000    -11.09400000     -6.11600000     -2.32000000
      3.25000000    711.28000000     -0.41570000    -12.92800000     -6.48800000     -1.13700000
      1.06910000     65.68880000      0.27190000    -13.70700000     -7.10000000     -0.94000000
      3.39970000    457.72960000      0.03370000    -12.85400000     -5.21500000     -0.43200000
      2.47140000     65.68880000      0.08230000    -13.04400000     -4.45400000     -1.18900000
      3.39970000    457.72960000     -0.18250000    -13.94600000     -5.13200000      0.62500000
      2.64950000     65.68880000      0.06030000    -13.76500000     -5.88200000      1.39500000
      2.64950000     65.68880000      0.06030000    -13.94100000     -4.14000000      1.07600000
      2.64950000     65.68880000      0.06030000    -14.91600000     -5.31500000      0.16200000
      3.39970000    359.82400000      0.59730000    -11.52100000     -4.90400000      0.25500000
      2.95990000    878.64000000     -0.56790000    -10.98600000     -5.71400000      1.01100000
      3.25000000    711.28000000     -0.41570000    -10.98900000     -3.73800000     -0.07600000
      1.06910000     65.68880000      0.27190000    -11.42400000     -3.16100000     -0.78200000
      3.39970000    457.72960000      0.01430000     -9.71200000     -3.30100000      0.48600000
      2.47140000     65.68880000      0.10480000     -9.69400000     -3.55700000      1.54500000
      3.39970000    457.72960000     -0.20410000     -8.48700000     -3.96000000     -0.20500000
      2.64950000     65.68880000      0.07970000     -8.56800000     -5.04600000     -0.14800000
      2.64950000     65.68880000      0.07970000     -8.47000000     -3.65200000     -1.25000000
      3.39970000    359.82400000      0.71300000     -7.17000000     -3.53100000      0.45400000
      2.95990000    878.64000000     -0.59310000     -7.15600000     -2.84700000      1.49100000
      3.25000000    711.28000000     -0.91910000     -6.08400000     -3.94200000     -0.13100000
      1.06910000     65.68880000      0.41960000     -5.18300000     -3.69400000      0.25200000
      1.06910000     65.68880000      0.41960000     -6.14700000     -4.50700000     -0.96600000
      3.39970000    359.82400000      0.59730000     -9.69300000     -1.79900000      0.40600000
      2.95990000    878.64000000     -0.56790000     -9.06800000     -1.22800000     -0.47200000
      3.25000000    711.28000000     -0.41570000    -10.47400000     -1.14700000      1.28700000
      1.06910000     65.68880000      0.27190000    -10.86200000     -1.64000000      2.07900000
      3.39970000    457.72960000     -0.03890000    -10.78900000      0.26100000      1.13100000
      2.47140000     65.68880000      0.10070000    -10.69600000      0.53800000      0.08100000
      3.39970000    457.72960000      0.36540000    -12.22600000      0.55100000      1.59000000
      2.47140000     65.68880000      0.00430000    -12.41600000      1.62100000      1.51100000
      3.39970000    457.72960000     -0.24380000    -13.18900000     -0.18200000      0.74900000
      2.64950000     65.68880000      0.06420000    -13.00000000     -1.25300000      0.82800000
      2.64950000     65.68880000      0.06420000    -14.20300000      0.03300000      1.08600000
      2.64950000     65.68880000      0.06420000    -13.07700000      0.13100000     -0.28900000
      3.06650000    880.31360000     -0.67610000    -12.38400000      0.12600000      2.95600000
      1.24730000     41.84000000      0.41020000    -13.28100000      0.30600000      3.24500000
      3.39970000    359.82400000      0.59730000     -9.82100000      1.09200000      1.96300000
      2.95990000    878.64000000     -0.56790000     -9.85900000      2.30900000      1.90400000
      3.25000000    711.28000000     -0.41570000     -8.98200000      0.44900000      2.77400000
      1.06910000     65.68880000      0.27190000     -9.01700000     -0.56000000      2.80800000
      3.39970000    457.72960000     -0.02520000     -8.02000000      1.12900000      3.61100000
      2.47140000     65.68880000      0.06980000     -7.14200000      0.49300000      3.72200000
      2.47140000     65.68880000      0.06980000     -7.73300000      2.06200000      3.12600000
      3.39970000    359.82400000      0.59730000     -8.59100000      1.44400000      5.00700000
      2.95990000    878.64000000     -0.56790000     -8.02400000      2.23900000      5.74400000
      3.25000000    711.28000000     -0.41570000     -9.63900000      0.73600000      5.41400000
      1.06910000     65.68880000      0.27190000    -10.09600000      0.10200000      4.77400000
      3.39970000    457.72960000      0.01430000    -10.16700000      0.85400000      6.76000000
      2.47140000     65.68880000      0.10480000     -9.95700000      1.84400000      7.16400000
      3.39970000    457.72960000     -0.20410000    -11.65900000      0.65200000      6.73100000
      2.64950000     65.68880000      0.07970000    -12.12600000      0.76800000      7.70900000
      2.64950000     65.68880000      0.07970000    -12.02000000      1.43300000      6.06200000
      3.39970000    359.82400000      0.71300000    -12.04700000     -0.66900000      6.17300000
      2.95990000    878.64000000     -0.59310000    -11.20800000     -1.51400000      5.82100000
      3.25000000    711.28000000     -0.91910000    -13.34000000     -0.94300000      6.17900000
      1.06910000     65.68880000      0.41960000    -13.66800000     -1.82500000      5.81300000
      1.06910000     65.68880000      0.41960000    -13.99400000     -0.26900000      6.54900000
      3.39970000    359.82400000      0.59730000     -9.56400000     -0.16400000      7.73400000
      2.95990000    878.64000000     -0.56790000    -10.13400000     -0.41000000      8.78800000
      3.25000000    711.28000000     -0.41570000     -8.46400000     -0.82500000      7.36300000
      1.06910000     65.68880000      0.27190000     -8.04900000     -0.69600000      6.45100000
      3.39970000    457.72960000     -0.02520000     -7.83400000     -1.75700000      8.27900000
      2.47140000     65.68880000      0.06980000     -6.78400000     -1.84800000      7.99900000
      2.47140000     65.68880000      0.06980000     -7.90700000     -1.34300000      9.28500000
      3.39970000    359.82400000      0.59730000     -8.46200000     -3.11800000      8.26500000
      2.95990000    878.64000000     -0.56790000     -8.02400000     -4.00700000      9.01000000
      3.25000000    711.28000000     -0.34790000     -9.44200000     -3.32800000      7.36300000
      1.06910000     65.68880000      0.27470000     -9.77000000     -2.54600000      6.81400000
      3.39970000    457.72960000     -0.24000000    -10.13800000     -4.59700000      7.23900000
      2.47140000     65.68880000      0.14260000     -9.58100000     -5.35300000      7.79300000
      3.39970000    457.72960000     -0.00940000    -11.60200000     -4.54900000      7.79200000
      2.64950000     65.68880000      0.03620000    -12.17700000     -3.89900000      7.13300000
      2.64950000     65.68880000      0.03620000    -12.00100000     -5.56200000      7.74100000
      3.39970000    457.72960000      0.01870000    -11.70200000     -4.03200000      9.23500000
      2.64950000     65.68880000      0.01030000    -11.21800000     -4.73500000      9.91300000
      2.64950000     65.68880000      0.01030000    -11.21600000     -3.05900000      9.31300000
      3.39970000    457.72960000     -0.04790000    -13.18500000     -3.89500000      9.61300000
      2.64950000     65.68880000      0.06210000    -13.73000000     -3.70500000      8.68800000
      2.64950000     65.68880000      0.06210000    -13.49500000     -4.85500000     10.02600000
      3.39970000    457.72960000     -0.01430000    -13.48200000     -2.80900000     10.59800000
      1.96000000     65.68880000      0.11350000    -13.83300000     -3.28100000     11.51600000
      1.96000000     65.68880000      0.11350000    -12.55100000     -2.27700000     10.79600000
      3.25000000    711.28000000     -0.38540000    -14.51200000     -1.84400000     10.10900000
      1.06910000     65.68880000      0.34000000    -15.37500000     -2.33600000      9.92600000
      1.06910000     65.68880000      0.34000000    -14.67100000     -1.13600000     10.81200000
      1.06910000     65.68880000      0.34000000    -14.18700000     -1.40700000      9.25900000
      3.39970000    359.82400000      0.73410000    -10.06000000     -5.05200000      5.77600000
      2.95990000    878.64000000     -0.58940000    -10.01800000     -4.22000000      4.80800000
      3.25000000    711.28000000     -0.41570000    -10.13700000     -6.31900000      5.59900000
      1.06910000     65.68880000      0.27190000    -10.26900000     -6.93700000      6.38700000
      3.39970000    457.72960000     -0.00140000     -9.92900000     -6.92500000      4.25200000
      2.47140000     65.68880000      0.08760000    -10.06100000     -6.17400000      3.47300000
      3.39970000    457.72960000     -0.01520000     -8.52100000     -7.47300000      4.16200000
      2.64950000     65.68880000      0.02950000     -8.51200000     -8.26200000      4.91400000
      2.64950000     65.68880000      0.02950000     -8.30600000     -7.90200000      3.18300000
      3.39970000    359.82400000     -0.00110000     -7.48000000     -6.45100000      4.49800000
      3.39970000    359.82400000     -0.19060000     -7.13000000     -6.19900000      5.80500000
      2.59960000     62.76000000      0.16990000     -7.54500000     -6.80800000      6.60800000
      3.39970000    359.82400000     -0.23410000     -6.24400000     -5.16500000      6.10100000
      2.59960000     62.76000000      0.16560000     -5.95500000     -4.96000000      7.13200000
      3.39970000    359.82400000      0.32260000     -5.66800000     -4.47300000      5.08300000
      3.06650000    880.31360000     -0.55790000     -4.77000000     -3.48800000      5.45300000
      1.24730000     41.84000000      0.39920000     -4.66400000     -3.41500000      6.40400000
      3.39970000    359.82400000     -0.23410000     -6.02800000     -4.67400000      3.78900000
      2.59960000     62.76000000      0.16560000     -5.60800000     -4.06900000      2.98600000
      3.39970000    359.82400000     -0.19060000     -6.93700000     -5.65800000      3.50200000
      2.59960000     62.76000000      0.16990000     -7.24700000     -5.83000000      2.47100000
      3.39970000    359.82400000      0.59730000    -10.95600000     -8.00900000      3.86700000
      2.95990000    878.64000000     -0.56790000    -11.34900000     -8.85200000      4.67100000
      3.25000000    711.28000000     -0.41570000    -11.48400000     -7.90700000      2.65100000
      1.06910000     65.68880000      0.27190000    -11.32900000     -7.06300000      2.11800000
      3.39970000    457.72960000     -0.02520000    -12.28600000     -8.97100000      2.04700000
      2.47140000     65.68880000      0.06980000    -12.15100000     -8.95800000      0.96500000
      2.47140000     65.68880000      0.06980000    -11.96500000     -9.93500000      2.44100000
      3.39970000    359.82400000      0.59730000    -13.72800000     -8.77700000      2.35700000
      2.95990000    878.64000000     -0.56790000    -14.13500000     -7.80900000      3.00100000
      3.25000000    711.28000000     -0.41570000    -14.49600000     -9.78300000      1.97100000
      1.06910000     65.68880000      0.27190000    -14.06800000    -10.63500000      1.63800000
      3.39970000    457.72960000     -0.02520000    -15.95400000     -9.70900000      2.00800000
      2.47140000     65.68880000      0.06980000    -16.27700000     -8.78000000      1.53800000
      2.47140000     65.68880000      0.06980000    -16.36900000    -10.55600000      1.46100000
      3.39970000    359.82400000      0.59730000    -16.46400000     -9.74400000      3.42600000
      2.95990000    878.64000000     -0.56790000    -17.56000000     -9.12300000      3.70300000
      3.25000000    711.28000000     -0.41570000    -15.68800000    -10.34700000      4.33400000
      1.06910000     65.68880000      0.27190000    -14.82900000    -10.79800000      4.05300000
      3.39970000    457.72960000     -0.05180000    -16.08400000    -10.44600000      5.67800000
      2.47140000     65.68880000      0.09220000    -17.11800000    -10.11900000      5.78600000
      3.39970000    457.72960000     -0.11020000    -15.97800000    -11.89100000      6.15400000
      2.64950000     65.68880000      0.04570000    -14.93300000    -12.18200000      6.05100000
      2.64950000     65.68880000      0.04570000    -16.25700000    -11.90500000      7.20800000
      3.39970000    457.72960000      0.35310000    -16.88000000    -12.89700000      5.36200000
      2.64950000     65.68880000     -0.03610000    -16.74700000    -12.76600000      4.28800000
      3.39970000    457.72960000     -0.41210000    -16.44300000    -14.32300000      5.76400000
      2.64950000     65.68880000      0.10000000    -16.57600000    -14.45500000      6.83800000
      2.64950000     65.68880000      0.10000000    -17.05100000    -15.05400000      5.23100000
      2.64950000     65.68880000      0.10000000    -15.39400000    -14.46800000      5.50800000
      3.39970000    457.72960000     -0.41210000    -18.34500000    -12.73700000      5.65400000
      2.64950000     65.68880000      0.10000000    -18.66200000    -11.73000000      5.38400000
      2.64950000     65.68880000      0.10000000    -18.91300000    -13.46400000      5.07300000
      2.64950000     65.68880000      0.10000000    -18.52400000    -12.90200000      6.71600000
      3.39970000    359.82400000      0.59730000    -15.29600000     -9.52000000      6.61300000
      2.95990000    878.64000000     -0.56790000    -15.47500000     -9.54000000      7.83200000
      3.25000000    711.28000000     -0.41570000    -14.52400000     -8.62700000      6.00200000
      1.06910000     65.68880000      0.27190000    -14.31800000     -8.76200000      5.02300000
      3.39970000    457.72960000     -0.00310000    -13.84500000     -7.56500000      6.70400000
      2.47140000     65.68880000      0.08500000    -13.09800000     -7.09700000      6.06300000
      3.39970000    457.72960000     -0.00360000    -14.88000000     -6.49900000      7.11300000
      2.64950000     65.68880000      0.01710000    -15.69900000     -6.99600000      7.63400000
      2.64950000     65.68880000      0.01710000    -14.39700000     -5.79100000      7.78700000
      3.39970000    457.72960000     -0.06450000    -15.42600000     -5.75600000      5.90400000
      2.64950000     65.68880000      0.03520000    -15.84400000     -6.39900000      5.13000000
      2.64950000     65.68880000      0.03520000    -16.21200000     -5.11800000      6.30900000
      3.39970000    359.82400000      0.69510000    -14.39100000     -4.90000000      5.29700000
      2.95990000    878.64000000     -0.60860000    -13.81200000     -5.19400000      4.21000000
      3.25000000    711.28000000     -0.94070000    -14.20700000     -3.75500000      5.89700000
      1.06910000     65.68880000      0.42510000    -13.51500000     -3.10900000      5.54400000
      1.06910000     65.68880000      0.42510000    -14.75700000     -3.52100000      6.71100000
      3.39970000    359.82400000      0.59730000    -13.00500000     -8.07000000      7.84400000
      2.95990000    878.64000000     -0.56790000    -13.07100000     -7.53000000      8.95400000
      3.25000000    711.28000000     -0.41570000    -12.12400000     -9.03200000      7.53500000
      1.06910000     65.68880000      0.27190000    -12.07900000     -9.39300000      6.59300000
      3.39970000    457.72960000     -0.00240000    -11.15900000     -9.53800000      8.52200000
      2.47140000     65.68880000      0.09780000    -11.67400000     -9.84500000      9.43200000
      3.39970000    457.72960000     -0.03430000    -10.42300000    -10.75600000      7.94000000
      2.64950000     65.68880000      0.02950000    -10.31600000    -10.64600000      6.86100000
      2.64950000     65.68880000      0.02950000     -9.43600000    -10.83900000      8.39600000
      3.39970000    359.82400000      0.01180000    -11.11900000    -12.07500000      8.17300000
      3.39970000    359.82400000     -0.12560000    -11.04800000    -12.66500000      9.39100000
      2.59960000     62.76000000      0.13300000    -10.49600000    -12.17800000     10.19500000
      3.39970000    359.82400000     -0.17040000    -11.68000000    -13.89600000      9.61900000
      2.59960000     62.76000000      0.14300000    -11.60200000    -14.37800000     10.59400000
      3.39970000    359.82400000     -0.10720000    -12.39700000    -14.49400000      8.61400000
      2.59960000     62.76000000      0.12970000    -12.91500000    -15.43800000      8.78400000
      3.39970000    359.82400000     -0.17040000    -12.45800000    -13.88800000      7.37800000
      2.59960000     62.76000000      0.14300000    -13.00400000    -14.35600000      6.55900000
      3.39970000    359.82400000     -0.12560000    -11.82500000    -12.68700000      7.18200000
      2.59960000     62.76000000      0.13300000    -11.87900000    -12.19500000      6.21100000
      3.39970000    359.82400000      0.59730000    -10.05100000     -8.52600000      8.86200000
      2.95990000    878.64000000     -0.56790000     -9.55900000     -7.78900000      7.96500000
      3.25000000    711.28000000     -0.34790000     -9.68000000     -8.46500000     10.13400000
      1.06910000     65.68880000      0.27470000    -10.28000000     -8.86000000     10.84400000
      3.39970000    457.72960000     -0.24000000     -8.46300000     -7.79400000     10.55600000
      2.47140000     65.68880000      0.14260000     -8.30800000     -6.88900000      9.96900000
      3.39970000    457.72960000     -0.00940000     -8.57700000     -7.40300000     12.04300000
      2.64950000     65.68880000      0.03620000     -9.05900000     -8.22200000     12.57800000
      2.64950000     65.68880000      0.03620000     -7.57200000     -7.25400000     12.43700000
      3.39970000    457.72960000      0.01870000     -9.38800000     -6.13000000     12.22900000
      2.64950000     65.68880000      0.01030000     -8.80700000     -5.31300000     11.80000000
      2.64950000     65.68880000      0.01030000    -10.31300000     -6.25300000     11.66500000
      3.39970000    457.72960000     -0.04790000     -9.71900000     -5.80900000     13.68900000
      2.64950000     65.68880000      0.06210000    -10.17700000     -6.68000000     14.15700000
      2.64950000     65.68880000      0.06210000     -8.80300000     -5.55100000     14.22000000
      3.39970000    457.72960000     -0.01430000    -10.69700000     -4.62300000     13.74700000
      1.96000000     65.68880000      0.11350000    -10.13000000     -3.72100000     13.51900000
      1.96000000     65.68880000      0.11350000    -11.45000000     -4.78300000     12.97500000
      3.25000000    711.28000000     -0.38540000    -11.36100000     -4.46900000     15.05800000
      1.06910000     65.68880000      0.34000000    -10.66400000     -4.32100000     15.77300000
      1.06910000     65.68880000      0.34000000    -11.98600000     -3.67600000     15.02800000
      1.06910000     65.68880000      0.34000000    -11.88700000     -5.30500000     15.26900000
      3.39970000    359.82400000      0.73410000     -7.25300000     -8.71100000     10.30300000
      2.95990000    878.64000000     -0.58940000     -7.42000000     -9.90100000     10.38400000
      3.25000000    711.28000000     -0.25480000     -6.06800000     -8.14900000      9.93300000
      3.39970000    457.72960000      0.01920000     -5.74700000     -6.74800000      9.63200000
      2.47140000     65.68880000      0.03910000     -5.60000000     -6.19400000     10.55900000
      2.47140000     65.68880000      0.03910000     -6.55900000     -6.29500000      9.06400000
      3.39970000    457.72960000      0.01890000     -4.48400000     -6.87200000      8.82700000
      2.64950000     65.68880000      0.02130000     -3.86400000     -5.98700000      8.96800000
      2.64950000     65.68880000      0.02130000     -4.72600000     -6.98100000      7.77000000
      3.39970000    457.72960000     -0.00700000     -3.81700000     -8.08700000      9.34400000
      2.64950000     65.68880000      0.02530000     -3.28300000     -7.87500000     10.27000000
      2.64950000     65.68880000      0.02530000     -3.12700000     -8.51800000      8.61800000
      3.39970000    457.72960000     -0.02660000     -4.94000000     -9.04100000      9.61100000
      2.47140000     65.68880000      0.06410000     -5.22700000     -9.61100000      8.72700000
      3.39970000    359.82400000      0.58960000     -4.55300000    -10.00700000     10.73800000
      2.95990000    878.64000000     -0.57480000     -4.32500000    -11.18500000     10.47400000
      3.25000000    711.28000000     -0.41570000     -4.60300000     -9.56400000     11.98900000
      1.06910000     65.68880000      0.27190000     -4.76500000     -8.58600000     12.18500000
      3.39970000    457.72960000      0.03370000     -4.26900000    -10.45000000     13.10600000
      2.47140000     65.68880000      0.08230000     -3.29700000    -10.86400000     12.83700000
      3.39970000    457.72960000     -0.18250000     -4.12500000     -9.67400000     14.42700000
      2.64950000     65.68880000      0.06030000     -5.09200000     -9.26100000     14.71400000
      2.64950000     65.68880000      0.06030000     -3.77200000    -10.34700000     15.20800000
      2.64950000     65.68880000      0.06030000     -3.40900000     -8.86300000     14.29600000
      3.39970000    359.82400000      0.59730000     -5.24100000    -11.64500000     13.25200000
      2.95990000    878.64000000     -0.56790000     -4.79900000    -12.75700000     13.57000000
      3.25000000    711.28000000     -0.41570000     -6.54700000    -11.44600000     13.03700000
      1.06910000     65.68880000      0.27190000     -6.88900000    -10.52000000     12.82500000
      3.39970000    457.72960000     -0.03890000     -7.52700000    -12.55200000     13.12800000
      2.47140000     65.68880000      0.10070000     -7.38100000    -13.10700000     14.05500000
      3.39970000    457.72960000      0.36540000     -8.97500000    -12.02000000     13.09500000
      2.47140000     65.68880000      0.00430000     -9.14500000    -11.58500000     12.11000000
      3.39970000    457.72960000     -0.24380000    -10.03200000    -13.12000000     13.36300000
      2.64950000     65.68880000      0.06420000     -9.86300000    -13.55500000     14.34800000
      2.64950000     65.68880000      0.06420000    -11.03000000    -12.68300000     13.32600000
      2.64950000     65.68880000      0.06420000     -9.94900000    -13.89700000     12.60400000
      3.06650000    880.31360000     -0.67610000     -9.13700000    -11.00000000     14.07900000
      1.24730000     41.84000000      0.41020000    -10.03900000    -10.67200000     14.05500000
      3.39970000    359.82400000      0.59730000     -7.33700000    -13.52900000     11.98800000
      2.95990000    878.64000000     -0.56790000     -7.33600000    -14.74100000     12.18000000
      3.25000000    711.28000000     -0.41570000     -7.13100000    -12.99900000     10.79700000
      1.06910000     65.68880000      0.27190000     -7.08700000    -11.99400000     10.70400000
      3.39970000    457.72960000     -0.02750000     -6.95100000    -13.80700000      9.60800000
      2.47140000     65.68880000      0.11230000     -7.84600000    -14.39600000      9.40900000
      3.39970000    457.72960000     -0.00500000     -6.69300000    -12.89100000      8.41100000
      2.64950000     65.68880000      0.03390000     -7.56500000    -12.25200000      8.27300000
      2.64950000     65.68880000      0.03390000     -5.82500000    -12.27500000      8.64700000
      3.39970000    359.82400000     -0.14150000     -6.42100000    -13.52100000      7.10500000
      3.39970000    359.82400000     -0.16380000     -5.21900000    -13.62500000      6.49200000
      2.51060000     62.76000000      0.20620000     -4.35600000    -13.22300000      7.02200000
      3.25000000    711.28000000     -0.34180000     -5.36400000    -14.24100000      5.28800000
      1.06910000     65.68880000      0.34120000     -4.61500000    -14.44800000      4.64300000
      3.39970000    359.82400000      0.13800000     -6.67300000    -14.56300000      5.10800000
      3.39970000    359.82400000     -0.26010000     -7.28900000    -15.20200000      4.06400000
      2.59960000     62.76000000      0.15720000     -6.68100000    -15.51600000      3.21500000
      3.39970000    359.82400000     -0.11340000     -8.62800000    -15.40500000      4.15500000
      2.59960000     62.76000000      0.14170000     -9.15300000    -15.91700000      3.34900000
      3.39970000    359.82400000     -0.19720000     -9.35300000    -14.96900000      5.26600000
      2.59960000     62.76000000      0.14470000    -10.43200000    -15.11700000      5.32100000
      3.39970000    359.82400000     -0.23870000     -8.73800000    -14.34800000      6.31100000
      2.59960000     62.76000000      0.17000000     -9.35200000    -13.98900000      7.13700000
      3.39970000    359.82400000      0.12430000     -7.36400000    -14.14600000      6.24600000
      3.39970000    359.82400000      0.59730000     -5.72800000    -14.72300000      9.84600000
      2.95990000    878.64000000     -0.56790000     -5.85000000    -15.91700000      9.74700000
      3.25000000    711.28000000     -0.41570000     -4.59200000    -14.13800000     10.24600000
      1.06910000     65.68880000      0.27190000     -4.57200000    -13.13800000     10.38800000
      3.39970000    457.72960000      0.03370000     -3.33600000    -14.90500000     10.45400000
      2.47140000     65.68880000      0.08230000     -3.12200000    -15.45300000      9.53700000
      3.39970000    457.72960000     -0.18250000     -2.16100000    -13.97300000     10.75200000
      2.64950000     65.68880000      0.06030000     -2.35700000    -13.42400000     11.67300000
      2.64950000     65.68880000      0.06030000     -1.25000000    -14.56100000     10.86700000
      2.64950000     65.68880000      0.06030000     -2.03700000    -13.26900000      9.92900000
      3.39970000    359.82400000      0.59730000     -3.46100000    -15.91800000     11.60200000
      2.95990000    878.64000000     -0.56790000     -3.03000000    -17.06500000     11.47700000
      3.25000000    711.28000000     -0.41570000     -4.11200000    -15.50200000     12.69000000
      1.06910000     65.68880000      0.27190000     -4.37900000    -14.53100000     12.77100000
      3.39970000    457.72960000      0.03370000     -4.37200000    -16.39800000     13.83500000
      2.47140000     65.68880000      0.08230000     -3.39300000    -16.71400000     14.19600000
      3.39970000    457.72960000     -0.18250000     -5.09000000    -15.65000000     14.96100000
      2.64950000     65.68880000      0.06030000     -6.07500000    -15.33500000     14.61800000
      2.64950000     65.68880000      0.06030000     -5.19900000    -16.30800000     15.82300000
      2.64950000     65.68880000      0.06030000     -4.50700000    -14.77400000     15.24500000
      3.39970000    359.82400000      0.59730000     -5.15400000    -17.65800000     13.45800000
      2.95990000    878.64000000     -0.56790000     -4.89700000    -18.71100000     14.02400000
      3.25000000    711.28000000     -0.41570000     -6.04000000    -17.57300000     12.48300000
      1.06910000     65.68880000      0.27190000     -6.23400000    -16.66000000     12.09700000
      3.39970000    457.72960000     -0.00240000     -6.87600000    -18.69000000     12.06800000
      2.47140000     65.68880000      0.09780000     -6.72600000    -19.53100000     12.74500000
      3.39970000    457.72960000     -0.03430000     -8.36500000    -18.29900000     12.09200000
      2.64950000     65.68880000      0.02950000     -8.51600000    -17.35300000     11.57200000
      2.64950000     65.68880000      0.02950000     -8.97800000    -19.07100000     11.62700000
      3.39970000    359.82400000      0.01180000     -8.89000000    -18.11400000     13.47800000
      3.39970000    359.82400000     -0.12560000     -8.77900000    -16.87700000     14.13000000
      2.59960000     62.76000000      0.13300000     -8.33100000    -16.04500000     13.58600000
      3.39970000    359.82400000     -0.17040000     -9.22200000    -16.69600000     15.43200000
      2.59960000     62.76000000      0.14300000     -9.12900000    -15.73300000     15.93300000
      3.39970000    359.82400000     -0.10720000     -9.79500000    -17.77500000     16.09900000
      2.59960000     62.76000000      0.12970000    -10.13000000    -17.67000000     17.13100000
      3.39970000    359.82400000     -0.17040000     -9.93900000    -18.99100000     15.44200000
      2.59960000     62.76000000      0.14300000    -10.41700000    -19.81800000     15.96600000
      3.39970000    359.82400000     -0.12560000     -9.49100000    -19.16100000     14.15400000
      2.59960000     62.76000000      0.13300000     -9.60800000    -20.12500000     13.65900000
      3.39970000    359.82400000      0.59730000     -6.48200000    -19.35700000     10.74800000
      2.95990000    878.64000000     -0.56790000     -7.27500000    -20.10800000     10.16900000
      3.25000000    711.28000000     -0.41570000     -5.22000000    -19.17200000     10.33600000
      1.06910000     65.68880000      0.27190000     -4.64000000    -18.47200000     10.77600000
      3.39970000    457.72960000     -0.02520000     -4.64400000    -19.96700000      9.24800000
      2.47140000     65.68880000      0.06980000     -3.61700000    -20.19500000      9.53400000
      2.47140000     65.68880000      0.06980000     -5.22000000    -20.89100000      9.19400000
      3.39970000    359.82400000      0.59730000     -4.64100000    -19.31400000      7.89600000
      2.95990000    878.64000000     -0.56790000     -4.21400000    -19.90500000      6.90800000
      3.25000000    711.28000000     -0.41570000     -5.10900000    -18.08400000      7.82800000
      1.06910000     65.68880000      0.27190000     -5.48200000    -17.62700000      8.64800000
      3.39970000    457.72960000     -0.02520000     -5.10200000    -17.35600000      6.58400000
      2.47140000     65.68880000      0.06980000     -5.41300000    -18.02200000      5.77900000
      2.47140000     65.68880000      0.06980000     -5.80000000    -16.52200000      6.65500000
      3.39970000    359.82400000      0.59730000     -3.72400000    -16.81900000      6.27300000
      2.95990000    878.64000000     -0.56790000     -2.97800000    -16.40000000      7.16800000
      3.25000000    711.28000000     -0.41570000     -3.38600000    -16.84400000      4.99900000
      1.06910000     65.68880000      0.27190000     -3.96700000    -17.31100000      4.31800000
      3.39970000    457.72960000     -0.08750000     -2.12100000    -16.28400000      4.55700000
      2.47140000     65.68880000      0.09690000     -1.60900000    -15.75600000      5.36100000
      3.39970000    457.72960000      0.29850000     -1.17500000    -17.37300000      3.99900000
      2.64950000     65.68880000     -0.02970000     -1.04900000    -18.14400000      4.75900000
      3.39970000    457.72960000     -0.31920000     -1.73500000    -18.00000000      2.72900000
      2.64950000     65.68880000      0.07910000     -1.86100000    -17.23000000      1.96800000
      2.64950000     65.68880000      0.07910000     -1.04500000    -18.76100000      2.36400000
      2.64950000     65.68880000      0.07910000     -2.70000000    -18.45900000      2.94500000
      3.39970000    457.72960000     -0.31920000      0.21200000    -16.78700000      3.74600000
      2.64950000     65.68880000      0.07910000      0.62100000    -16.40400000      4.68100000
      2.64950000     65.68880000      0.07910000      0.86900000    -17.56300000      3.35300000
      2.64950000     65.68880000      0.07910000      0.13700000    -15.97500000      3.02300000
      3.39970000    359.82400000      0.59730000     -2.42400000    -15.19800000      3.54400000
      2.95990000    878.64000000     -0.56790000     -3.44700000    -15.25600000      2.86400000
      3.25000000    711.28000000     -0.41570000     -1.53700000    -14.20800000      3.49100000
      1.06910000     65.68880000      0.27190000     -0.76300000    -14.21000000      4.14000000
      3.39970000    457.72960000     -0.02520000     -1.63000000    -13.13100000      2.54800000
      2.47140000     65.68880000      0.06980000     -0.69700000    -12.56700000      2.55900000
      2.47140000     65.68880000      0.06980000     -1.79200000    -13.54300000      1.55200000
      3.39970000    359.82400000      0.59730000     -2.78800000    -12.18700000      2.89200000
      2.95990000    878.64000000     -0.56790000     -3.34400000    -12.20100000      3.99700000
      3.25000000    711.28000000     -0.41570000     -3.13700000    -11.36900000      1.91600000
      1.06910000     65.68880000      0.27190000     -2.62800000    -11.40900000      1.04400000
      3.39970000    457.72960000      0.01430000     -4.19800000    -10.39800000      2.04600000
      2.47140000     65.68880000      0.10480000     -4.16500000     -9.91800000      3.02400000
      3.39970000    457.72960000     -0.20410000     -4.01000000     -9.32100000      0.96400000
      2.64950000     65.68880000      0.07970000     -2.99800000     -8.91700000      1.00600000
      2.64950000     65.68880000      0.07970000     -4.16600000     -9.81100000      0.00300000
      3.39970000    359.82400000      0.71300000     -4.99300000     -8.17700000      1.08800000
      2.95990000    878.64000000     -0.59310000     -6.10100000     -8.33400000      1.55500000
      3.25000000    711.28000000     -0.91910000     -4.55600000     -6.99000000      0.70000000
      1.06910000     65.68880000      0.41960000     -5.16600000     -6.18700000      0.75900000
      1.06910000     65.68880000      0.41960000     -3.61500000     -6.89200000      0.34700000
      3.39970000    359.82400000      0.59730000     -5.53200000    -11.08100000      1.89800000
      2.95990000    878.64000000     -0.56790000     -5.77600000    -11.77600000      0.91200000
      3.25000000    711.28000000     -0.25480000     -6.44000000    -10.91700000      2.89500000
      3.39970000    457.72960000      0.01920000     -6.24000000    -10.35300000      4.24400000
      2.47140000     65.68880000      0.03910000     -6.21900000     -9.26500000      4.17900000
      2.47140000     65.68880000      0.03910000     -5.29200000    -10.71100000      4.64600000
      3.39970000    457.72960000      0.01890000     -7.41200000    -10.85800000      5.01700000
      2.64950000     65.68880000      0.02130000     -7.75500000    -10.07000000      5.68800000
      2.64950000     65.68880000      0.02130000     -7.10000000    -11.72300000      5.60300000
      3.39970000    457.72960000     -0.00700000     -8.46400000    -11.23300000      4.03700000
      2.64950000     65.68880000      0.02530000     -9.14000000    -10.40100000      3.83900000
      2.64950000     65.68880000      0.02530000     -9.03600000    -12.08700000      4.40000000
      3.39970000    457.72960000     -0.02660000     -7.70900000    -11.61500000      2.74600000
      2.47140000     65.68880000      0.06410000     -7.47800000    -12.68000000      2.72400000
      3.39970000    359.82400000      0.58960000     -8.53600000    -11.23100000      1.46300000
      2.95990000    878.64000000     -0.57480000     -9.31500000    -12.04800000      0.93700000
      3.25000000    711.28000000     -0.41570000     -8.33700000    -10.03100000      0.96700000
      1.06910000     65.68880000      0.27190000     -7.74600000     -9.39300000      1.48000000
      3.39970000    457.72960000      0.03370000     -8.98400000     -9.55100000     -0.23800000
      2.47140000     65.68880000      0.08230000    -10.04800000     -9.75600000     -0.11700000
      3.39970000    457.72960000     -0.18250000     -8.78700000     -8.04600000     -0.32800000
      2.64950000     65.68880000      0.06030000     -7.72800000     -7.82500000     -0.45900000
      2.64950000     65.68880000      0.06030000     -9.34700000     -7.65600000     -1.17800000
      2.64950000     65.68880000      0.06030000     -9.14500000     -7.57700000      0.58800000
      3.39970000    359.82400000      0.59730000     -8.53400000    -10.19700000     -1.52200000
      2.95990000    878.64000000     -0.56790000     -9.20300000    -10.06900000     -2.50400000
      3.25000000    711.28000000     -0.41570000     -7.36000000    -10.82200000     -1.49700000
      1.06910000     65.68880000      0.27190000     -6.78000000    -10.70600000     -0.67800000
      3.39970000    457.72960000      0.03370000     -6.82200000    -11.61500000     -2.63500000
      2.47140000     65.68880000      0.08230000     -7.26100000    -11.21700000     -3.55000000
      3.39970000    457.72960000     -0.18250000     -5.29800000    -11.45100000     -2.71000000
      2.64950000     65.68880000      0.06030000     -4.84400000    -11.85400000     -1.80500000
      2.64950000     65.68880000      0.06030000     -4.91600000    -11.98900000     -3.57800000
      2.64950000     65.68880000      0.06030000     -5.05000000    -10.39400000     -2.80100000
      3.39970000    359.82400000      0.59730000     -7.19400000    -13.08600000     -2.55600000
      2.95990000    878.64000000     -0.56790000     -6.99000000    -13.85900000     -3.49900000
      3.25000000    711.28000000     -0.41570000     -7.79600000    -13.48800000     -1.42400000
      1.06910000     65.68880000      0.27190000     -7.97600000    -12.83300000     -0.67600000
      3.39970000    457.72960000      0.03370000     -8.17700000    -14.88000000     -1.22900000
      2.47140000     65.68880000      0.08230000     -7.50200000    -15.58000000     -1.72100000
      3.39970000    457.72960000     -0.18250000     -8.22700000    -15.21300000      0.24900000
      2.64950000     65.68880000      0.06030000     -8.90600000    -14.52600000      0.75400000
      2.64950000     65.68880000      0.06030000     -8.58200000    -16.23500000      0.38000000
      2.64950000     65.68880000      0.06030000     -7.22900000    -15.11800000      0.67700000
      3.39970000    359.82400000      0.59730000     -9.52700000    -15.04100000     -1.88900000
      2.95990000    878.64000000     -0.56790000    -10.25700000    -14.04800000     -2.02200000
      3.25000000    711.28000000     -0.41570000     -9.81500000    -16.23000000     -2.39300000
      1.06910000     65.68880000      0.27190000     -9.09100000    -16.93300000     -2.43200000
      3.39970000    457.72960000     -0.02490000    -11.10300000    -16.53500000     -2.98800000
      2.47140000     65.68880000      0.08430000    -11.31700000    -15.79600000     -3.76000000
      3.39970000    457.72960000      0.21170000    -11.14100000    -17.90900000     -3.61100000
      2.47140000     65.68880000      0.03520000    -12.07800000    -18.00700000     -4.16000000
      2.47140000     65.68880000      0.03520000    -10.30400000    -17.99000000     -4.30500000
      3.06650000    880.31360000     -0.65460000    -11.05200000    -18.93900000     -2.64100000
      1.24730000     41.84000000      0.42750000    -11.08000000    -19.79300000     -3.07800000
      3.39970000    359.82400000      0.59730000    -12.19800000    -16.34700000     -1.90500000
      2.95990000    878.64000000     -0.56790000    -11.91900000    -16.45400000     -0.70300000
      3.25000000    711.28000000     -0.34790000    -13.43200000    -16.10300000     -2.32800000
      1.06910000     65.68880000      0.27470000    -13.61200000    -15.83200000     -3.28400000
      3.39970000    457.72960000     -0.26370000    -14.56400000    -16.18900000     -1.40800000
      2.47140000     65.68880000      0.15600000    -14.53800000    -15.35900000     -0.70200000
      3.39970000    457.72960000     -0.00070000    -15.87600000    -16.12300000     -2.19200000
      2.64950000     65.68880000      0.03270000    -16.00300000    -15.08200000     -2.49000000
      2.64950000     65.68880000      0.03270000    -15.73400000    -16.74000000     -3.07900000
      3.39970000    457.72960000      0.03900000    -17.09500000    -16.58200000     -1.45500000
      2.64950000     65.68880000      0.02850000    -16.94200000    -17.61800000     -1.15300000
      2.64950000     65.68880000      0.02850000    -17.21300000    -15.95900000     -0.56800000
      3.39970000    457.72960000      0.04860000    -18.33900000    -16.48500000     -2.30800000
      2.47140000     65.68880000      0.06870000    -18.55600000    -15.44400000     -2.54600000
      2.47140000     65.68880000      0.06870000    -18.21100000    -17.04900000     -3.23200000
      3.25000000    711.28000000     -0.52950000    -19.46300000    -17.03900000     -1.57700000
      1.06910000     65.68880000      0.34560000    -20.10400000    -16.36000000     -1.19200000
      3.39970000    359.82400000      0.80760000    -19.74900000    -18.33500000     -1.43800000
      3.25000000    711.28000000     -0.86270000    -18.99600000    -19.31400000     -1.88400000
      1.06910000     65.68880000      0.44780000    -18.13600000    -19.10400000     -2.36900000
      1.06910000     65.68880000      0.44780000    -19.28100000    -20.27200000     -1.74000000
      3.25000000    711.28000000     -0.86270000    -20.80200000    -18.71400000     -0.75900000
      1.06910000     65.68880000      0.44780000    -21.40300000    -18.02100000     -0.33700000
      1.06910000     65.68880000      0.44780000    -21.00800000    -19.69800000     -0.66100000
      3.39970000    359.82400000      0.73410000    -14.49300000    -17.48000000     -0.61500000
      2.95990000    878.64000000     -0.58940000    -14.73300000    -17.49100000      0.59600000
      3.25000000    711.28000000     -0.51630000    -14.23300000    -18.60400000     -1.29500000
      1.06910000     65.68880000      0.29360000    -14.12600000    -18.56800000     -2.29900000
      3.39970000    457.72960000      0.03970000    -14.25600000    -19.93200000     -0.63800000
      2.47140000     65.68880000      0.11050000    -15.17900000    -20.02300000     -0.06500000
      3.39970000    457.72960000      0.05600000    -14.18700000    -21.07600000     -1.63100000
      2.64950000     65.68880000     -0.01730000    -13.28500000    -20.92700000     -2.22400000
      2.64950000     65.68880000     -0.01730000    -14.09300000    -21.99400000     -1.05100000
      3.39970000    457.72960000      0.01360000    -15.39800000    -21.18300000     -2.56200000
      2.64950000     65.68880000     -0.04250000    -15.18500000    -22.08600000     -3.13500000
      2.64950000     65.68880000     -0.04250000    -16.31700000    -21.32300000     -1.99200000
      3.39970000    359.82400000      0.80540000    -15.56900000    -19.98200000     -3.53300000
      2.95990000    878.64000000     -0.81880000    -14.57700000    -19.32400000     -3.98700000
      2.95990000    878.64000000     -0.81880000    -16.76900000    -19.60900000     -3.78400000
      3.39970000    359.82400000      0.53660000    -13.16300000    -20.03100000      0.46200000
      2.95990000    878.64000000     -0.58190000    -13.43200000    -20.51900000      1.55100000
      3.25000000    711.28000000     -0.41570000    -11.99800000    -19.46400000      0.23000000
      1.06910000     65.68880000      0.27190000    -11.81600000    -19.10000000     -0.69500000
      3.39970000    457.72960000     -0.00310000    -10.90300000    -19.40500000      1.24100000
      2.47140000     65.68880000      0.08500000    -10.77900000    -20.38800000      1.69600000
      3.39970000    457.72960000     -0.00360000     -9.57700000    -18.99000000      0.60700000
      2.64950000     65.68880000      0.01710000     -9.73700000    -18.05500000      0.07100000
      2.64950000     65.68880000      0.01710000     -8.85500000    -18.83000000      1.40800000
      3.39970000    457.72960000     -0.06450000     -9.03900000    -20.04800000     -0.36200000
      2.64950000     65.68880000      0.03520000     -8.63000000    -20.87400000      0.22000000
      2.64950000     65.68880000      0.03520000     -9.87800000    -20.40600000     -0.96000000
      3.39970000    359.82400000      0.69510000     -7.96400000    -19.53600000     -1.29500000
      2.95990000    878.64000000     -0.60860000     -7.95700000    -18.37300000     -1.67100000
      3.25000000    711.28000000     -0.94070000     -7.07500000    -20.38900000     -1.64600000
      1.06910000     65.68880000      0.42510000     -6.33000000    -20.11000000     -2.26800000
      1.06910000     65.68880000      0.42510000     -7.12400000    -21.33600000     -1.29900000
      3.39970000    359.82400000      0.59730000    -11.24900000    -18.45100000      2.42500000
      2.95990000    878.64000000     -0.56790000    -10.94100000    -18.78500000      3.60100000
      3.25000000    711.28000000     -0.41570000    -11.90600000    -17.32000000      2.12100000
      1.06910000     65.68880000      0.27190000    -12.12900000    -17.09200000      1.16300000
      3.39970000    457.72960000     -0.00310000    -12.30200000    -16.38900000      3.15900000
      2.47140000     65.68880000      0.08500000    -11.43900000    -16.11600000      3.76700000
      3.39970000    457.72960000     -0.00360000    -12.87600000    -15.12000000      2.52800000
      2.64950000     65.68880000      0.01710000    -13.63300000    -15.41600000      1.80200000
      2.64950000     65.68880000      0.01710000    -13.34100000    -14.53000000      3.31800000
      3.39970000    457.72960000     -0.06450000    -11.80700000    -14.28700000      1.83500000
      2.64950000     65.68880000      0.03520000    -11.10500000    -13.98800000      2.61300000
      2.64950000     65.68880000      0.03520000    -11.28100000    -14.86400000      1.07500000
      3.39970000    359.82400000      0.69510000    -12.35900000    -13.07400000      1.20700000
      2.95990000    878.64000000     -0.60860000    -13.06900000    -12.25600000      1.88800000
      3.25000000    711.28000000     -0.94070000    -12.14200000    -12.92900000     -0.06600000
      1.06910000     65.68880000      0.42510000    -12.49800000    -12.11500000     -0.54600000
      1.06910000     65.68880000      0.42510000    -11.61800000    -13.63100000     -0.56900000
      3.39970000    359.82400000      0.59730000    -13.36200000    -17.03000000      4.07000000
      2.95990000    878.64000000     -0.56790000    -13.32700000    -16.88400000      5.27900000
      3.25000000    711.28000000     -0.41570000    -14.27900000    -17.78400000      3.46800000
      1.06910000     65.68880000      0.27190000    -14.34600000    -17.77400000      2.46000000
      3.39970000    457.72960000     -0.05970000    -15.27600000    -18.53300000      4.21800000
      2.47140000     65.68880000      0.08690000    -15.74000000    -17.92300000      4.99300000
      3.39970000    457.72960000      0.13030000    -16.36500000    -19.06400000      3.26100000
      2.64950000     65.68880000      0.01870000    -15.87000000    -19.45800000      2.37300000
      3.39970000    457.72960000     -0.32040000    -17.20900000    -20.15200000      3.89300000
      2.64950000     65.68880000      0.08820000    -17.70400000    -19.75900000      4.78100000
      2.64950000     65.68880000      0.08820000    -17.96000000    -20.49100000      3.17900000
      2.64950000     65.68880000      0.08820000    -16.57100000    -20.99000000      4.17500000
      3.39970000    457.72960000     -0.04300000    -17.22200000    -17.88300000      2.82700000
      2.64950000     65.68880000      0.02360000    -17.77300000    -17.53600000      3.70100000
      2.64950000     65.68880000      0.02360000    -16.55000000    -17.09600000      2.48500000
      3.39970000    457.72960000     -0.06600000    -18.20800000    -18.23400000      1.70900000
      2.64950000     65.68880000      0.01860000    -18.88000000    -19.02100000      2.05100000
      2.64950000     65.68880000      0.01860000    -18.78900000    -17.35000000      1.44500000
      2.64950000     65.68880000      0.01860000    -17.65800000    -18.58100000      0.83400000
      3.39970000    359.82400000      0.59730000    -14.67800000    -19.65200000      5.06800000
      2.95990000    878.64000000     -0.56790000    -15.11000000    -19.86200000      6.20400000
      3.25000000    711.28000000     -0.41570000    -13.69100000    -20.37400000      4.53200000
      1.06910000     65.68880000      0.27190000    -13.43200000    -20.24000000      3.56500000
      3.39970000    457.72960000      0.03370000    -13.01500000    -21.40800000      5.28600000
      2.47140000     65.68880000      0.08230000    -13.74500000    -22.16100000      5.58200000
      3.39970000    457.72960000     -0.18250000    -11.93000000    -22.08000000      4.46900000
      2.64950000     65.68880000      0.06030000    -11.18700000    -21.34000000      4.17300000
      2.64950000     65.68880000      0.06030000    -11.45200000    -22.85500000      5.06700000
      2.64950000     65.68880000      0.06030000    -12.37000000    -22.52900000      3.57800000
      3.39970000    359.82400000      0.59730000    -12.44000000    -20.81100000      6.56400000
      2.95990000    878.64000000     -0.56790000    -12.56500000    -21.43900000      7.61800000
      3.25000000    711.28000000     -0.41570000    -11.76400000    -19.66300000      6.45800000
      1.06910000     65.68880000      0.27190000    -11.50900000    -19.31500000      5.54500000
      3.39970000    457.72960000     -0.08750000    -11.22300000    -18.98400000      7.63400000
      2.47140000     65.68880000      0.09690000    -10.72100000    -19.72800000      8.25200000
      3.39970000    457.72960000      0.29850000    -10.22100000    -17.85500000      7.30900000
      2.64950000     65.68880000     -0.02970000    -10.74200000    -17.09300000      6.73000000
      3.39970000    457.72960000     -0.31920000     -9.64000000    -17.22400000      8.57500000
      2.64950000     65.68880000      0.07910000     -9.11800000    -17.98600000      9.15500000
      2.64950000     65.68880000      0.07910000     -8.94000000    -16.43500000      8.30000000
      2.64950000     65.68880000      0.07910000    -10.44700000    -16.80100000      9.17400000
      3.39970000    457.72960000     -0.31920000     -9.06200000    -18.41600000      6.47800000
      2.64950000     65.68880000      0.07910000     -9.44900000    -18.83300000      5.54900000
      2.64950000     65.68880000      0.07910000     -8.35700000    -17.61600000      6.25100000
      2.64950000     65.68880000      0.07910000     -8.55400000    -19.19800000      7.04300000
      3.39970000    359.82400000      0.59730000    -12.34000000    -18.51400000      8.56500000
      2.95990000    878.64000000     -0.56790000    -12.23800000    -18.73500000      9.78100000
      3.25000000    711.28000000     -0.41570000    -13.43500000    -17.98500000      8.01800000
      1.06910000     65.68880000      0.27190000    -13.48900000    -17.77900000      7.03100000
      3.39970000    457.72960000      0.03370000    -14.55000000    -17.56900000      8.87700000
      2.47140000     65.68880000      0.08230000    -14.14100000    -16.85400000      9.59100000
      3.39970000    457.72960000     -0.18250000    -15.62200000    -16.87900000      8.06100000
      2.64950000     65.68880000      0.06030000    -16.04700000    -17.58500000      7.34800000
      2.64950000     65.68880000      0.06030000    -16.40700000    -16.51600000      8.72400000
      2.64950000     65.68880000      0.06030000    -15.18500000    -16.03800000      7.52300000
      3.39970000    359.82400000      0.59730000    -15.11600000    -18.73200000      9.69400000
      2.95990000    878.64000000     -0.56790000    -15.46200000    -18.55800000     10.85500000
      3.25000000    711.28000000     -0.41570000    -15.21300000    -19.92800000      9.08100000
      1.06910000     65.68880000      0.27190000    -14.96700000    -20.02600000      8.10600000
      3.39970000    457.72960000      0.01430000    -15.80400000    -21.08000000      9.76800000
      2.47140000     65.68880000      0.10480000    -16.76200000    -20.79500000     10.20300000
      3.39970000    457.72960000     -0.20410000    -16.03700000    -22.25200000      8.78000000
      2.64950000     65.68880000      0.07970000    -15.19400000    -22.29800000      8.09000000
      2.64950000     65.68880000      0.07970000    -16.09900000    -23.18500000      9.34000000
      3.39970000    359.82400000      0.71300000    -17.30600000    -22.08400000      7.98100000
      2.95990000    878.64000000     -0.59310000    -18.32400000    -21.58000000      8.49100000
      3.25000000    711.28000000     -0.91910000    -17.27200000    -22.51400000      6.70100000
      1.06910000     65.68880000      0.41960000    -18.09300000    -22.42600000      6.12000000
      1.06910000     65.68880000      0.41960000    -16.42500000    -22.92100000      6.33100000
      3.39970000    359.82400000      0.59730000    -14.97000000    -21.47000000     10.95800000
      2.95990000    878.64000000     -0.56790000    -15.49100000    -21.77200000     12.02300000
      3.25000000    711.28000000     -0.34790000    -13.65100000    -21.41600000     10.82400000
      1.06910000     65.68880000      0.27470000    -13.24800000    -21.29900000      9.90500000
      3.39970000    457.72960000     -0.26370000    -12.74200000    -21.57200000     11.96900000
      2.47140000     65.68880000      0.15600000    -12.92200000    -22.52800000     12.46100000
      3.39970000    457.72960000     -0.00070000    -11.30700000    -21.53300000     11.50100000
      2.64950000     65.68880000      0.03270000    -11.12900000    -20.57400000     11.01400000
      2.64950000     65.68880000      0.03270000    -10.65800000    -21.62400000     12.37200000
      3.39970000    457.72960000      0.03900000    -11.01300000    -22.63700000     10.54500000
      2.64950000     65.68880000      0.02850000    -10.96500000    -23.59400000     11.06500000
      2.64950000     65.68880000      0.02850000    -11.77500000    -22.68500000      9.76700000
      3.39970000    457.72960000      0.04860000     -9.67600000    -22.33900000      9.92000000
      2.47140000     65.68880000      0.06870000     -9.68100000    -21.33300000      9.50100000
      2.47140000     65.68880000      0.06870000     -8.89200000    -22.41500000     10.67300000
      3.25000000    711.28000000     -0.52950000     -9.39200000    -23.28000000      8.86000000
      1.06910000     65.68880000      0.34560000    -10.13400000    -23.88800000      8.54300000
      3.39970000    359.82400000      0.80760000     -8.23200000    -23.33200000      8.24400000
      3.25000000    711.28000000     -0.86270000     -7.23100000    -22.53400000      8.63800000
      1.06910000     65.68880000      0.44780000     -7.37200000    -21.89500000      9.40700000
      1.06910000     65.68880000      0.44780000     -6.34000000    -22.57500000      8.16400000
      3.25000000    711.28000000     -0.86270000     -8.05500000    -24.22600000      7.29100000
      1.06910000     65.68880000      0.44780000     -8.80600000    -24.85500000      7.04700000
      1.06910000     65.68880000      0.44780000     -7.16900000    -24.27700000      6.80900000
      3.39970000    359.82400000      0.73410000    -12.89700000    -20.51600000     13.10500000
      2.95990000    878.64000000     -0.58940000    -12.96100000    -20.87800000     14.30900000
      3.25000000    711.28000000     -0.41570000    -12.99800000    -19.24300000     12.72800000
      1.06910000     65.68880000      0.27190000    -12.87600000    -19.01400000     11.75200000
      3.39970000    457.72960000     -0.08750000    -13.27500000    -18.15200000     13.67000000
      2.47140000     65.68880000      0.09690000    -12.48400000    -18.13300000     14.42000000
      3.39970000    457.72960000      0.29850000    -13.32900000    -16.75400000     12.96300000
      2.64950000     65.68880000     -0.02970000    -14.03600000    -16.80100000     12.13500000
      3.39970000    457.72960000     -0.31920000    -13.77200000    -15.67900000     13.94700000
      2.64950000     65.68880000      0.07910000    -13.06500000    -15.63100000     14.77600000
      2.64950000     65.68880000      0.07910000    -13.80500000    -14.71400000     13.44100000
      2.64950000     65.68880000      0.07910000    -14.76300000    -15.92200000     14.32900000
      3.39970000    457.72960000     -0.31920000    -11.95300000    -16.39100000     12.44000000
      2.64950000     65.68880000      0.07910000    -11.62500000    -17.14500000     11.72400000
      2.64950000     65.68880000      0.07910000    -11.99500000    -15.41900000     11.94900000
      2.64950000     65.68880000      0.07910000    -11.24800000    -16.34800000     13.27000000
      3.39970000    359.82400000      0.59730000    -14.62200000    -18.32400000     14.40000000
      2.95990000    878.64000000     -0.56790000    -14.71400000    -18.17900000     15.64300000
      3.25000000    711.28000000     -0.41570000    -15.60600000    -18.75500000     13.66300000
      1.06910000     65.68880000      0.27190000    -15.53200000    -18.79900000     12.65700000
      3.39970000    457.72960000     -0.05180000    -16.91400000    -19.10800000     14.29300000
      2.47140000     65.68880000      0.09220000    -17.31500000    -18.23900000     14.81400000
      3.39970000    457.72960000     -0.11020000    -17.92600000    -19.55400000     13.23500000
      2.64950000     65.68880000      0.04570000    -17.97900000    -18.67800000     12.58900000
      2.64950000     65.68880000      0.04570000    -17.49200000    -20.38700000     12.68200000
      3.39970000    457.72960000      0.35310000    -19.33100000    -19.92900000     13.69900000
      2.64950000     65.68880000     -0.03610000    -19.25100000    -20.74200000     14.42100000
      3.39970000    457.72960000     -0.41210000    -20.03900000    -18.74600000     14.34400000
      2.64950000     65.68880000      0.10000000    -20.12000000    -17.93300000     13.62300000
      2.64950000     65.68880000      0.10000000    -21.03700000    -19.04900000     14.66300000
      2.64950000     65.68880000      0.10000000    -19.46900000    -18.40800000     15.20900000
      3.39970000    457.72960000     -0.41210000    -20.13100000    -20.48300000     12.54400000
      2.64950000     65.68880000      0.10000000    -19.63600000    -21.37100000     12.15200000
      2.64950000     65.68880000      0.10000000    -21.13100000    -20.74700000     12.88800000
      2.64950000     65.68880000      0.10000000    -20.20400000    -19.73100000     11.75800000
      3.39970000    359.82400000      0.59730000    -16.79300000    -20.16300000     15.36900000
      2.95990000    878.64000000     -0.56790000    -17.42500000    -20.05000000     16.46500000
      3.25000000    711.28000000     -0.41570000    -16.09500000    -21.25200000     15.05500000
      1.06910000     65.68880000      0.27190000    -15.70800000    -21.34100000     14.12600000
      3.39970000    457.72960000      0.03370000    -15.94700000    -22.38200000     15.98300000
      2.47140000     65.68880000      0.08230000    -16.94200000    -22.72200000     16.27100000
      3.39970000    457.72960000     -0.18250000    -15.20900000    -23.54300000     15.31500000
      2.64950000     65.68880000      0.06030000    -14.20800000    -23.22100000     15.02900000
      2.64950000     65.68880000      0.06030000    -15.13600000    -24.37700000     16.01300000
      2.64950000     65.68880000      0.06030000    -15.75600000    -23.85900000     14.42700000
      3.39970000    359.82400000      0.59730000    -15.25300000    -21.92400000     17.26300000
      2.95990000    878.64000000     -0.56790000    -15.67200000    -22.29900000     18.34000000
      3.25000000    711.28000000     -0.51630000    -14.24200000    -21.09000000     17.16200000
      1.06910000     65.68880000      0.29360000    -13.97000000    -20.72000000     16.26300000
      3.39970000    457.72960000      0.03970000    -13.45700000    -20.68400000     18.35900000
      2.47140000     65.68880000      0.11050000    -13.37300000    -21.51000000     19.06500000
      3.39970000    457.72960000      0.05600000    -12.05100000    -20.28500000     17.90400000
      2.64950000     65.68880000     -0.01730000    -11.62800000    -21.16200000     17.41300000
      2.64950000     65.68880000     -0.01730000    -12.18100000    -19.48700000     17.17300000
      3.39970000    457.72960000      0.01360000    -11.11700000    -19.82000000     18.99400000
      2.64950000     65.68880000     -0.04250000    -10.24800000    -19.37300000     18.51000000
      2.64950000     65.68880000     -0.04250000    -11.62400000    -19.06700000     19.59700000
      3.39970000    359.82400000      0.80540000    -10.66600000    -20.96400000     19.88800000
      2.95990000    878.64000000     -0.81880000    -10.74200000    -22.13800000     19.43800000
      2.95990000    878.64000000     -0.81880000    -10.25400000    -20.70400000     21.04100000
      3.39970000    359.82400000      0.53660000    -14.05800000    -19.50800000     19.15100000
      2.95990000    878.64000000     -0.58190000    -13.95600000    -19.49000000     20.36600000
      3.25000000    711.28000000     -0.41570000    -14.66500000    -18.53600000     18.45100000
      1.06910000     65.68880000      0.27190000    -14.81000000    -18.68900000     17.46300000
      3.39970000    457.72960000     -0.00310000    -15.09900000    -17.27900000     19.02200000
      2.47140000     65.68880000      0.08500000    -14.80800000    -17.21000000     20.07000000
      3.39970000    457.72960000     -0.00360000    -14.41800000    -16.11800000     18.23900000
      2.64950000     65.68880000      0.01710000    -14.70100000    -16.23800000     17.19300000
      2.64950000     65.68880000      0.01710000    -14.84100000    -15.19100000     18.62500000
      3.39970000    457.72960000     -0.06450000    -12.90100000    -16.06800000     18.35100000
      2.64950000     65.68880000      0.03520000    -12.64400000    -16.12100000     19.40900000
      2.64950000     65.68880000      0.03520000    -12.47800000    -16.92800000     17.83200000
      3.39970000    359.82400000      0.69510000    -12.28900000    -14.78500000     17.75900000
      2.95990000    878.64000000     -0.60860000    -12.96000000    -13.98800000     17.14600000
      3.25000000    711.28000000     -0.94070000    -10.97500000    -14.62000000     17.95100000
      1.06910000     65.68880000      0.42510000    -10.51400000    -13.79800000     17.58700000
      1.06910000     65.68880000      0.42510000    -10.45000000    -15.31800000     18.45900000
      3.39970000    359.82400000      0.59730000    -16.62900000    -17.04900000     18.99500000
      2.95990000    878.64000000     -0.56790000    -17.12600000    -16.09300000     19.60000000
      3.25000000    711.28000000     -0.41570000    -17.36400000    -17.83900000     18.21800000
      1.06910000     65.68880000      0.27190000    -16.94100000    -18.64500000     17.78100000
      3.39970000    457.72960000     -0.02520000    -18.78800000    -17.57900000     17.96900000
      2.47140000     65.68880000      0.06980000    -19.20500000    -18.47100000     17.50200000
      2.47140000     65.68880000      0.06980000    -19.26400000    -17.41900000     18.93600000
      3.39970000    359.82400000      0.59730000    -19.06600000    -16.36800000     17.07000000
      2.95990000    878.64000000     -0.56790000    -18.12000000    -15.73500000     16.48400000
      3.25000000    711.28000000     -0.41570000    -20.35400000    -16.02800000     16.91000000
      1.06910000     65.68880000      0.27190000    -21.09100000    -16.54800000     17.36500000
      3.39970000    457.72960000     -0.05180000    -20.72600000    -14.89300000     16.06600000
      2.47140000     65.68880000      0.09220000    -20.21600000    -14.95900000     15.10500000
      3.39970000    457.72960000     -0.11020000    -22.25300000    -14.89700000     15.81600000
      2.64950000     65.68880000      0.04570000    -22.67700000    -15.01700000     16.81300000
      2.64950000     65.68880000      0.04570000    -22.54800000    -13.92900000     15.41000000
      3.39970000    457.72960000      0.35310000    -22.75800000    -15.98400000     14.92700000
      2.64950000     65.68880000     -0.03610000    -22.44300000    -16.95700000     15.30300000
      3.39970000    457.72960000     -0.41210000    -24.27300000    -15.91100000     14.91900000
      2.64950000     65.68880000      0.10000000    -24.58800000    -14.93800000     14.54200000
      2.64950000     65.68880000      0.10000000    -24.67200000    -16.69600000     14.27600000
      2.64950000     65.68880000      0.10000000    -24.64900000    -16.04700000     15.93300000
      3.39970000    457.72960000     -0.41210000    -22.20700000    -15.91000000     13.55300000
      2.64950000     65.68880000      0.10000000    -21.12100000    -15.99200000     13.59200000
      2.64950000     65.68880000      0.10000000    -22.61100000    -16.72600000     12.95400000
      2.64950000     65.68880000      0.10000000    -22.48300000    -14.95700000     13.10100000
      3.39970000    359.82400000      0.59730000    -20.34900000    -13.56100000     16.71900000
      2.95990000    878.64000000     -0.56790000    -20.42000000    -12.53000000     16.06200000
      3.25000000    711.28000000     -0.51630000    -19.93700000    -13.57600000     17.97800000
      1.06910000     65.68880000      0.29360000    -20.11100000    -14.39400000     18.54400000
      3.39970000    457.72960000      0.03810000    -19.29600000    -12.38300000     18.62800000
      2.47140000     65.68880000      0.08800000    -20.02600000    -11.57500000     18.66400000
      3.39970000    457.72960000     -0.03030000    -18.80600000    -12.66600000     20.05800000
      2.64950000     65.68880000     -0.01220000    -18.37100000    -13.66400000     20.11700000
      2.64950000     65.68880000     -0.01220000    -18.03400000    -11.92200000     20.25200000
      3.39970000    359.82400000      0.79940000    -19.92700000    -12.53100000     21.11100000
      2.95990000    878.64000000     -0.80140000    -21.06000000    -12.14400000     20.73300000
      2.95990000    878.64000000     -0.80140000    -19.67600000    -12.86200000     22.25900000
      3.39970000    359.82400000      0.53660000    -18.12200000    -11.80600000     17.80700000
      2.95990000    878.64000000     -0.58190000    -17.75100000    -10.62500000     17.96800000
      3.25000000    711.28000000     -0.41570000    -17.55600000    -12.58900000     16.89300000
      1.06910000     65.68880000      0.27190000    -17.74000000    -13.58000000     16.83100000
      3.39970000    457.72960000      0.03370000    -16.52800000    -12.02400000     16.03600000
      2.47140000     65.68880000      0.08230000    -15.86200000    -11.48700000     16.71100000
      3.39970000    457.72960000     -0.18250000    -15.75000000    -13.10700000     15.35800000
      2.64950000     65.68880000      0.06030000    -16.40200000    -13.64800000     14.67200000
      2.64950000     65.68880000      0.06030000    -14.92300000    -12.66700000     14.80100000
      2.64950000     65.68880000      0.06030000    -15.35800000    -13.79600000     16.10600000
      3.39970000    359.82400000      0.59730000    -17.06000000    -11.00100000     15.01900000
      2.95990000    878.64000000     -0.56790000    -16.28500000    -10.21200000     14.44400000
      3.25000000    711.28000000     -0.41570000    -18.36300000    -11.04000000     14.75600000
      1.06910000     65.68880000      0.27190000    -18.90500000    -11.75600000     15.21800000
      3.39970000    457.72960000     -0.02750000    -19.06100000    -10.11000000     13.85000000
      2.47140000     65.68880000      0.11230000    -18.37300000     -9.33100000     13.52100000
      3.39970000    457.72960000     -0.00500000    -19.58300000    -10.84600000     12.62600000
      2.64950000     65.68880000      0.03390000    -20.18500000    -11.72100000     12.87100000
      2.64950000     65.68880000      0.03390000    -20.19500000    -10.12500000     12.08300000
      3.39970000    359.82400000     -0.14150000    -18.53300000    -11.30300000     11.68700000
      3.39970000    359.82400000     -0.16380000    -17.94500000    -10.57200000     10.63600000
      2.51060000     62.76000000      0.20620000    -18.28300000     -9.54300000     10.51200000
      3.25000000    711.28000000     -0.34180000    -17.02700000    -11.34900000      9.95900000
      1.06910000     65.68880000      0.34120000    -16.61700000    -11.15200000      9.05800000
      3.39970000    359.82400000      0.13800000    -16.87400000    -12.50500000     10.66100000
      3.39970000    359.82400000     -0.26010000    -16.04200000    -13.56900000     10.38200000
      2.59960000     62.76000000      0.15720000    -15.34200000    -13.48800000      9.55000000
      3.39970000    359.82400000     -0.11340000    -16.15300000    -14.66300000     11.17600000
      2.59960000     62.76000000      0.14170000    -15.51300000    -15.52200000     10.97600000
      3.39970000    359.82400000     -0.19720000    -17.05800000    -14.72500000     12.23800000
      2.59960000     62.76000000      0.14470000    -17.10200000    -15.60400000     12.88100000
      3.39970000    359.82400000     -0.23870000    -17.92800000    -13.67300000     12.50800000
      2.59960000     62.76000000      0.17000000    -18.64600000    -13.77500000     13.32200000
      3.39970000    359.82400000      0.12430000    -17.84100000    -12.54000000     11.71700000
      3.39970000    359.82400000      0.59730000    -20.23600000     -9.54200000     14.70700000
      2.95990000    878.64000000     -0.56790000    -21.39700000     -9.94300000     14.58100000
      3.25000000    711.28000000     -0.25480000    -19.93000000     -8.60500000     15.59500000
      3.39970000    457.72960000      0.01920000    -18.67200000     -7.83300000     15.72800000
      2.47140000     65.68880000      0.03910000    -18.51000000     -7.26000000     14.81500000
      2.47140000     65.68880000      0.03910000    -17.84400000     -8.52800000     15.87200000
      3.39970000    457.72960000      0.01890000    -18.89900000     -6.95500000     16.92800000
      2.64950000     65.68880000      0.02130000    -18.86600000     -5.91900000     16.59000000
      2.64950000     65.68880000      0.02130000    -18.08300000     -7.13500000     17.62800000
      3.39970000    457.72960000     -0.00700000    -20.20300000     -7.28100000     17.54200000
      2.64950000     65.68880000      0.02530000    -20.83400000     -6.42100000     17.76500000
      2.64950000     65.68880000      0.02530000    -19.96000000     -7.80200000     18.46800000
      3.39970000    457.72960000     -0.02660000    -20.93600000     -8.23300000     16.58000000
      2.47140000     65.68880000      0.06410000    -21.14100000     -9.14900000     17.13400000
      3.39970000    359.82400000      0.58960000    -22.27800000     -7.62400000     16.06900000
      2.95990000    878.64000000     -0.57480000    -23.32500000     -7.90600000     16.70900000
      3.25000000    711.28000000     -0.41570000    -22.28400000     -6.92500000     14.94900000
      1.06910000     65.68880000      0.27190000    -21.41900000     -6.60400000     14.53900000
      3.39970000    457.72960000     -0.03890000    -23.57500000     -6.46900000     14.33500000
      2.47140000     65.68880000      0.10070000    -24.36300000     -6.58100000     15.08000000
      3.39970000    457.72960000      0.36540000    -23.48200000     -5.00000000     13.94100000
      2.47140000     65.68880000      0.00430000    -22.73600000     -4.90200000     13.15200000
      3.39970000    457.72960000     -0.24380000    -24.87700000     -4.44100000     13.42300000
      2.64950000     65.68880000      0.06420000    -25.62300000     -4.53800000     14.21200000
      2.64950000     65.68880000      0.06420000    -24.77000000     -3.39100000     13.15200000
      2.64950000     65.68880000      0.06420000    -25.19600000     -5.01100000     12.55000000
      3.06650000    880.31360000     -0.67610000    -23.13300000     -4.28600000     15.11300000
      1.24730000     41.84000000      0.41020000    -23.06300000     -3.35100000     14.90900000
      3.39970000    359.82400000      0.59730000    -24.08500000     -7.32000000     13.14700000
      2.95990000    878.64000000     -0.56790000    -25.29500000     -7.67200000     13.04700000
      3.25000000    711.28000000     -0.41570000    -23.14400000     -7.74200000     12.31000000
      1.06910000     65.68880000      0.27190000    -22.18600000     -7.47400000     12.48700000
      3.39970000    457.72960000      0.02130000    -23.42900000     -8.49800000     11.13300000
      2.47140000     65.68880000      0.11240000    -24.37500000     -8.19000000     10.68700000
      3.39970000    457.72960000     -0.12310000    -22.27400000     -8.22900000     10.09800000
      2.47140000     65.68880000      0.11120000    -21.28900000     -8.38500000     10.53700000
      2.47140000     65.68880000      0.11120000    -22.37500000     -8.84600000      9.20500000
      3.53240000   1181.56160000     -0.31190000    -22.30400000     -6.48500000      9.51900000
      1.08900000     51.88160000      0.19330000    -21.25900000     -6.59100000      8.70300000
      3.39970000    359.82400000      0.59730000    -23.60700000    -10.01900000     11.33200000
      2.95990000    878.64000000     -0.56790000    -24.16500000    -10.67400000     10.48500000
      3.25000000    711.28000000     -0.41570000    -23.15700000    -10.54300000     12.45300000
      1.06910000     65.68880000      0.27190000    -22.69000000     -9.97500000     13.14600000
      3.39970000    457.72960000     -0.02520000    -23.32300000    -11.97200000     12.72500000
      2.47140000     65.68880000      0.06980000    -22.64500000    -12.50500000     12.05800000
      2.47140000     65.68880000      0.06980000    -23.02000000    -12.13800000     13.75900000
      3.39970000    359.82400000      0.59730000    -24.73700000    -12.51100000     12.53000000
      2.95990000    878.64000000     -0.56790000    -24.89500000    -13.60100000     11.98900000
      3.25000000    711.28000000     -0.41570000    -25.75400000    -11.75800000     12.99400000
      1.06910000     65.68880000      0.27190000    -25.55800000    -10.88000000     13.45300000
      3.39970000    457.72960000      0.03370000    -27.16400000    -12.19500000     12.88800000
      2.47140000     65.68880000      0.08230000    -27.30100000    -13.10700000     13.46900000
      3.39970000    457.72960000     -0.18250000    -28.08200000    -11.11000000     13.45700000
      2.64950000     65.68880000      0.06030000    -27.96300000    -10.19300000     12.88000000
      2.64950000     65.68880000      0.06030000    -29.11800000    -11.44300000     13.39900000
      2.64950000     65.68880000      0.06030000    -27.82000000    -10.92000000     14.49800000
      3.39970000    359.82400000      0.59730000    -27.56300000    -12.49700000     11.44000000
      2.95990000    878.64000000     -0.56790000    -28.48900000    -13.30600000     11.21000000
      3.25000000    711.28000000     -0.41570000    -26.91100000    -11.83200000     10.46600000
      1.06910000     65.68880000      0.27190000    -26.27500000    -11.07500000     10.67300000
      3.39970000    457.72960000      0.03370000    -27.23500000    -12.10500000      9.06000000
      2.47140000     65.68880000      0.08230000    -28.31600000    -11.99300000      8.97700000
      3.39970000    457.72960000     -0.18250000    -26.57700000    -11.09500000      8.16100000
      2.64950000     65.68880000      0.06030000    -25.49400000    -11.20100000      8.22600000
      2.64950000     65.68880000      0.06030000    -26.89600000    -11.26100000      7.13200000
      2.64950000     65.68880000      0.06030000    -26.86300000    -10.09000000      8.47200000
      3.39970000    359.82400000      0.59730000    -26.91000000    -13.56600000      8.64500000
      2.95990000    878.64000000     -0.56790000    -27.49900000    -14.06900000      7.70100000
      3.25000000    711.28000000     -0.41570000    -26.08100000    -14.28100000      9.44900000
      1.06910000     65.68880000      0.27190000    -25.66900000    -13.82500000     10.25100000
      3.39970000    457.72960000     -0.02490000    -25.75200000    -15.64400000      9.20400000
      2.47140000     65.68880000      0.08430000    -25.28100000    -15.74600000      8.22600000
      3.39970000    457.72960000      0.21170000    -24.78000000    -16.14200000     10.26600000
      2.47140000     65.68880000      0.03520000    -24.38800000    -17.11800000      9.97900000
      2.47140000     65.68880000      0.03520000    -23.95600000    -15.43700000     10.37200000
      3.06650000    880.31360000     -0.65460000    -25.47800000    -16.25500000     11.52000000
      1.24730000     41.84000000      0.42750000    -24.87300000    -16.56900000     12.19600000
      3.39970000    359.82400000      0.59730000    -26.99400000    -16.56300000      9.21300000
      2.95990000    878.64000000     -0.56790000    -26.93700000    -17.64800000      8.67100000
      3.25000000    711.28000000     -0.41570000    -28.09300000    -16.09600000      9.81800000
      1.06910000     65.68880000      0.27190000    -28.12200000    -15.14900000     10.16700000
      3.39970000    457.72960000     -0.02520000    -29.24100000    -16.90900000      9.98700000
      2.47140000     65.68880000      0.06980000    -30.10200000    -16.25500000     10.12900000
      2.47140000     65.68880000      0.06980000    -29.37700000    -17.49600000      9.07900000
      3.39970000    359.82400000      0.59730000    -29.13500000    -17.85700000     11.18100000
      2.95990000    878.64000000     -0.56790000    -30.06000000    -18.62000000     11.42800000
      3.25000000    711.28000000     -0.41570000    -28.01300000    -17.86200000     11.90300000
      1.06910000     65.68880000      0.27190000    -27.23700000    -17.27200000     11.63900000
      3.39970000    457.72960000     -0.05180000    -27.87300000    -18.68500000     13.05800000
      2.47140000     65.68880000      0.09220000    -28.43600000    -19.60800000     12.91600000
      3.39970000    457.72960000     -0.11020000    -26.41000000    -19.04000000     13.31100000
      2.64950000     65.68880000      0.04570000    -25.92800000    -18.06900000     13.42500000
      2.64950000     65.68880000      0.04570000    -26.37000000    -19.57800000     14.25800000
      3.39970000    457.72960000      0.35310000    -25.68100000    -19.84800000     12.23500000
      2.64950000     65.68880000     -0.03610000    -25.73500000    -19.32800000     11.27900000
      3.39970000    457.72960000     -0.41210000    -24.24100000    -19.99800000     12.64400000
      2.64950000     65.68880000      0.10000000    -24.18700000    -20.51800000     13.60000000
      2.64950000     65.68880000      0.10000000    -23.70600000    -20.57200000     11.88800000
      2.64950000     65.68880000      0.10000000    -23.78600000    -19.01200000     12.74100000
      3.39970000    457.72960000     -0.41210000    -26.32200000    -21.21300000     12.01600000
      2.64950000     65.68880000      0.10000000    -27.35700000    -21.08200000     11.70100000
      2.64950000     65.68880000      0.10000000    -25.77300000    -21.75300000     11.24400000
      2.64950000     65.68880000      0.10000000    -26.29500000    -21.78100000     12.94600000
      3.39970000    359.82400000      0.59730000    -28.42300000    -17.88100000     14.22400000
      2.95990000    878.64000000     -0.56790000    -28.04800000    -16.71300000     14.38100000
      3.25000000    711.28000000     -0.25480000    -29.29900000    -18.47100000     15.03500000
      3.39970000    457.72960000      0.01920000    -29.86000000    -19.83200000     15.02900000
      2.47140000     65.68880000      0.03910000    -29.07900000    -20.55000000     14.77900000
      2.47140000     65.68880000      0.03910000    -30.66100000    -19.89500000     14.29200000
      3.39970000    457.72960000      0.01890000    -30.36500000    -19.99400000     16.44300000
      2.64950000     65.68880000      0.02130000    -29.59300000    -20.47900000     17.04000000
      2.64950000     65.68880000      0.02130000    -31.25900000    -20.61800000     16.43000000
      3.39970000    457.72960000     -0.00700000    -30.67600000    -18.63000000     16.95900000
      2.64950000     65.68880000      0.02530000    -30.48400000    -18.54800000     18.02900000
      2.64950000     65.68880000      0.02530000    -31.72100000    -18.39300000     16.75900000
      3.39970000    457.72960000     -0.02660000    -29.77100000    -17.67400000     16.19600000
      2.47140000     65.68880000      0.06410000    -30.36500000    -16.85300000     15.79400000
      3.39970000    359.82400000      0.58960000    -28.65300000    -17.10800000     17.08600000
      2.95990000    878.64000000     -0.57480000    -27.87000000    -17.84500000     17.72000000
      3.25000000    711.28000000     -0.41570000    -28.57100000    -15.78600000     17.11600000
      1.06910000     65.68880000      0.27190000    -29.13900000    -15.21500000     16.50700000
      3.39970000    457.72960000     -0.05970000    -27.45600000    -15.13700000     17.85200000
      2.47140000     65.68880000      0.08690000    -26.49200000    -15.60700000     17.65600000
      3.39970000    457.72960000      0.13030000    -27.35800000    -13.58500000     17.54600000
      2.64950000     65.68880000      0.01870000    -26.74100000    -13.45500000     16.65700000
      3.39970000    457.72960000     -0.32040000    -28.72900000    -12.94900000     17.31200000
      2.64950000     65.68880000      0.08820000    -29.34600000    -13.07800000     18.20100000
      2.64950000     65.68880000      0.08820000    -28.60600000    -11.88600000     17.10700000
      2.64950000     65.68880000      0.08820000    -29.21300000    -13.42900000     16.46100000
      3.39970000    457.72960000     -0.04300000    -26.56200000    -12.83900000     18.66400000
      2.64950000     65.68880000      0.02360000    -27.08400000    -11.90900000     18.88800000
      2.64950000     65.68880000      0.02360000    -26.55100000    -13.47200000     19.55100000
      3.39970000    457.72960000     -0.06600000    -25.13000000    -12.52900000     18.24300000
      2.64950000     65.68880000      0.01860000    -25.14100000    -11.89600000     17.35600000
      2.64950000     65.68880000      0.01860000    -24.61700000    -12.01000000     19.05300000
      2.64950000     65.68880000      0.01860000    -24.60700000    -13.45900000     18.01900000
      3.39970000    359.82400000      0.59730000    -27.43900000    -15.51200000     19.35400000
      2.95990000    878.64000000     -0.56790000    -26.37900000    -15.60000000     19.98100000
      3.25000000    711.28000000     -0.41570000    -28.60000000    -15.74600000     19.96200000
      1.06910000     65.68880000      0.27190000    -29.47400000    -15.60600000     19.47500000
      3.39970000    457.72960000      0.03370000    -28.64400000    -16.08800000     21.34900000
      2.47140000     65.68880000      0.08230000    -28.07900000    -15.31200000     21.86500000
      3.39970000    457.72960000     -0.18250000    -30.09200000    -16.08800000     21.89100000
      2.64950000     65.68880000      0.06030000    -30.66800000    -16.86600000     21.39000000
      2.64950000     65.68880000      0.06030000    -30.07900000    -16.28000000     22.96400000
      2.64950000     65.68880000      0.06030000    -30.55100000    -15.11800000     21.70100000
      3.39970000    359.82400000      0.59730000    -27.94700000    -17.42900000     21.64300000
      2.95990000    878.64000000     -0.56790000    -27.52400000    -17.64400000     22.76800000
      3.25000000    711.28000000     -0.41570000    -27.86400000    -18.31300000     20.65000000
      1.06910000     65.68880000      0.27190000    -28.23300000    -18.06500000     19.74300000
      3.39970000    457.72960000     -0.05180000    -27.32900000    -19.63300000     20.83000000
      2.47140000     65.68880000      0.09220000    -27.30100000    -19.88600000     21.89000000
      3.39970000    457.72960000     -0.11020000    -28.20900000    -20.64700000     20.11100000
      2.64950000     65.68880000      0.04570000    -28.12900000    -20.35800000     19.06300000
      2.64950000     65.68880000      0.04570000    -27.82000000    -21.65700000     20.24000000
      3.39970000    457.72960000      0.35310000    -29.72300000    -20.60600000     20.55300000
      2.64950000     65.68880000     -0.03610000    -30.12800000    -19.62100000     20.32300000
      3.39970000    457.72960000     -0.41210000    -30.53000000    -21.66700000     19.82700000
      2.64950000     65.68880000      0.10000000    -30.12500000    -22.65300000     20.05700000
      2.64950000     65.68880000      0.10000000    -31.57000000    -21.61700000     20.15000000
      2.64950000     65.68880000      0.10000000    -30.47500000    -21.49400000     18.75200000
      3.39970000    457.72960000     -0.41210000    -29.89700000    -20.73700000     22.04800000
      2.64950000     65.68880000      0.10000000    -29.38100000    -19.91700000     22.54800000
      2.64950000     65.68880000      0.10000000    -30.95800000    -20.70200000     22.29500000
      2.64950000     65.68880000      0.10000000    -29.47800000    -21.68600000     22.38100000
      3.39970000    359.82400000      0.59730000    -25.89200000    -19.74100000     20.34600000
      2.95990000    878.64000000     -0.56790000    -25.17700000    -20.63400000     20.74600000
      3.25000000    711.28000000     -0.41570000    -25.47100000    -18.82400000     19.48700000
      1.06910000     65.68880000      0.27190000    -26.01200000    -17.98400000     19.34000000
      3.39970000    457.72960000     -0.02750000    -24.20000000    -18.96300000     18.77600000
      2.47140000     65.68880000      0.11230000    -23.67000000    -19.84700000     19.13000000
      3.39970000    457.72960000     -0.00500000    -24.44500000    -19.10900000     17.29600000
      2.64950000     65.68880000      0.03390000    -25.16800000    -18.34800000     17.00400000
      2.64950000     65.68880000      0.03390000    -23.49100000    -18.91000000     16.80800000
      3.39970000    359.82400000     -0.14150000    -24.96000000    -20.44800000     16.72800000
      3.39970000    359.82400000     -0.16380000    -26.25500000    -20.80300000     16.51900000
      2.51060000     62.76000000      0.20620000    -27.02400000    -20.09400000     16.82700000
      3.25000000    711.28000000     -0.34180000    -26.30500000    -22.03500000     15.93900000
      1.06910000     65.68880000      0.34120000    -27.15500000    -22.53100000     15.71300000
      3.39970000    359.82400000      0.13800000    -25.03300000    -22.51400000     15.76300000
      3.39970000    359.82400000     -0.26010000    -24.59900000    -23.71700000     15.22300000
      2.59960000     62.76000000      0.15720000    -25.34400000    -24.40500000     14.82300000
      3.39970000    359.82400000     -0.11340000    -23.23100000    -23.96800000     15.22700000
      2.59960000     62.76000000      0.14170000    -22.85300000    -24.92400000     14.86500000
      3.39970000    359.82400000     -0.19720000    -22.32200000    -23.01100000     15.68900000
      2.59960000     62.76000000      0.14470000    -21.24600000    -23.17700000     15.63300000
      3.39970000    359.82400000     -0.23870000    -22.77400000    -21.80400000     16.24000000
      2.59960000     62.76000000      0.17000000    -22.03300000    -21.06000000     16.53200000
      3.39970000    359.82400000      0.12430000    -24.15800000    -21.56800000     16.29400000
      3.39970000    359.82400000      0.59730000    -23.27900000    -17.75700000     18.89100000
      2.95990000    878.64000000     -0.56790000    -22.21100000    -17.74100000     18.20700000
      3.25000000    711.28000000     -0.41570000    -23.63500000    -16.78200000     19.76200000
      1.06910000     65.68880000      0.27190000    -24.42100000    -16.88900000     20.38700000
      3.39970000    457.72960000     -0.02490000    -22.80600000    -15.56000000     19.88000000
      2.47140000     65.68880000      0.08430000    -22.74000000    -15.10600000     18.89100000
      3.39970000    457.72960000      0.21170000    -23.35400000    -14.50800000     20.87100000
      2.47140000     65.68880000      0.03520000    -22.55600000    -14.13400000     21.51200000
      2.47140000     65.68880000      0.03520000    -23.80800000    -13.67600000     20.33400000
      3.06650000    880.31360000     -0.65460000    -24.32500000    -15.14200000     21.65600000
      1.24730000     41.84000000      0.42750000    -24.68800000    -14.51400000     22.28500000
      3.39970000    359.82400000      0.59730000    -21.51600000    -16.04000000     20.45000000
      2.95990000    878.64000000     -0.56790000    -20.43700000    -15.47300000     20.14900000
      3.25000000    711.28000000     -0.34810000    -21.70800000    -17.10900000     21.20600000
      1.06910000     65.68880000      0.27640000    -22.69700000    -17.30600000     21.26300000
      3.39970000    457.72960000     -0.29030000    -20.83900000    -17.78200000     22.09300000
      2.47140000     65.68880000      0.14380000    -21.31400000    -17.89700000     23.06700000
      3.39970000    457.72960000     -0.05380000    -20.49800000    -19.20800000     21.53000000
      2.64950000     65.68880000      0.04820000    -21.18100000    -19.91000000     22.00800000
      2.64950000     65.68880000      0.04820000    -20.69500000    -19.18200000     20.45800000
      3.39970000    457.72960000      0.02270000    -19.04900000    -19.65800000     21.77300000
      2.64950000     65.68880000      0.01340000    -18.40000000    -19.07500000     21.11900000
      2.64950000     65.68880000      0.01340000    -18.80000000    -19.44700000     22.81300000
      3.39970000    457.72960000     -0.03920000    -18.85100000    -21.12700000     21.49700000
      2.64950000     65.68880000      0.06110000    -19.44200000    -21.40400000     20.62400000
      2.64950000     65.68880000      0.06110000    -17.79600000    -21.30700000     21.29300000
      3.39970000    457.72960000     -0.01760000    -19.28600000    -21.96400000     22.68900000
      1.96000000     65.68880000      0.11210000    -18.52900000    -22.04400000     23.47000000
      1.96000000     65.68880000      0.11210000    -20.23000000    -21.64400000     23.13000000
      3.25000000    711.28000000     -0.37410000    -19.46800000    -23.29100000     22.03700000
      1.06910000     65.68880000      0.33740000    -18.59300000    -23.58800000     21.62900000
      1.06910000     65.68880000      0.33740000    -19.76500000    -23.96700000     22.72600000
      1.06910000     65.68880000      0.33740000    -20.16900000    -23.21700000     21.31400000
      3.39970000    359.82400000      0.84880000    -19.70200000    -16.94600000     22.61400000
      2.95990000    878.64000000     -0.82520000    -19.89700000    -16.28600000     23.67800000
      2.95990000    878.64000000     -0.82520000    -18.57800000    -17.04900000     22.12700000
