 $RISM
CLOSURE="KH",
ITRMAX=300,
CONV=1.d-5,
CHARGEUP="off",
IGUESS=0,
iolist="gqu"
grid="user"
outtype="bin"
 $END
 $chargeupopt chgstep=0.2 $end
 $MDIIS
NSUB=10,DUMPMAX=0.3d0,DUMPMIN=0.001d0
 $END
 $grid3d
ngrid3d=64 rdelta3d=0.5
 $end
 $rismsolution
solute="udata"
solvent="h2o_vv.xvk"
esptype="cube"
 $end
 $UDATA
   16   pna
C        3.3997  359.8240   -0.127771      -0.0000     1.2050    -0.6708
C        3.3997  359.8240   -0.127771      -0.0000    -1.2050    -0.6708
C        3.3997  359.8240   -0.283580       0.0000     1.2070     0.7032
C        3.3997  359.8240   -0.283580      -0.0000    -1.2070     0.7032
C        3.3997  359.8240    0.510149       0.0000    -0.0000     1.4162
C        3.3997  359.8240   -0.041414       0.0000     0.0000    -1.3568
H        2.5996   62.7600    0.153558      -0.0000     2.1270    -1.2168
H        2.5996   62.7600    0.153558      -0.0000    -2.1270    -1.2168
H        2.5996   62.7600    0.153685       0.0000     2.1400     1.2372
H        2.5996   62.7600    0.153685      -0.0000    -2.1400     1.2372
N        3.2500  711.2800    0.740095       0.0000     0.0000    -2.7998
N        3.2500  711.2800   -0.973612       0.0000    -0.0000     2.7762
H        1.0691   65.6888    0.425257      -0.0000     0.8490     3.2902
H        1.0691   65.6888    0.425257      -0.0000    -0.8490     3.2902
O        2.9599  878.6400   -0.438757       0.0000     1.0570    -3.3608
O        2.9599  878.6400   -0.438757      -0.0000    -1.0570    -3.3608
 $END
 $RISMICALQM
qm="g16"
qmopt="%chk=pna.chk\%NProcShared=20\%Mem=32GB\#p B3LYP/6-31G(d) Charge NoSymm\\PNA in water\\0 1"
scfconv=1.d-5, qvcutoff=1.d-16, mix_alpha=1.0 qvcore=0.01
 $END
