 $RISM
CLOSURE="KH",
ITRMAX=300,
CONV=1.d-5,
CHARGEUP="off",
IGUESS=0,
iolist="gqu"
grid="user"
outtype="bin"
 $END
 $chargeupopt chgstep=0.2 $end
 $MDIIS
NSUB=10,DUMPMAX=0.3d0,DUMPMIN=0.001d0
 $END
 $grid3d
ngrid3d=64 rdelta3d=0.5
 $end
 $rismsolution
solute="udata"
solvent="h2o_vv.xvk"
esptype="cube"
 $end
 $UDATA
   16   pna
C        3.3997  359.8240   -0.145539      -0.0000     1.2050    -0.6708
C        3.3997  359.8240   -0.145539      -0.0000    -1.2050    -0.6708
C        3.3997  359.8240   -0.292734       0.0000     1.2070     0.7032
C        3.3997  359.8240   -0.292737      -0.0000    -1.2070     0.7032
C        3.3997  359.8240    0.542098       0.0000    -0.0000     1.4162
C        3.3997  359.8240   -0.040200       0.0000     0.0000    -1.3568
H        2.5996   62.7600    0.165308      -0.0000     2.1270    -1.2168
H        2.5996   62.7600    0.165302      -0.0000    -2.1270    -1.2168
H        2.5996   62.7600    0.176527       0.0000     2.1400     1.2372
H        2.5996   62.7600    0.176527      -0.0000    -2.1400     1.2372
N        3.2500  711.2800    0.803620       0.0000     0.0000    -2.7998
N        3.2500  711.2800   -0.988691       0.0000    -0.0000     2.7762
H        1.0691   65.6888    0.460638      -0.0000     0.8490     3.2902
H        1.0691   65.6888    0.460639      -0.0000    -0.8490     3.2902
O        2.9599  878.6400   -0.522602       0.0000     1.0570    -3.3608
O        2.9599  878.6400   -0.522617      -0.0000    -1.0570    -3.3608
 $END
 $RISMICALQM
qm="g16"
qmopt="%chk=pna_fc.chk\%NProcShared=20\%Mem=32GB\#p td=(nstates=2, root=1) B3LYP/6-31G(d) Charge NoSymm Density=Current\\PNA in water\\0 1"
scfconv=1.d-5, qvcutoff=1.d-9, mix_alpha=1.0 qvcore=0.1
 $END
