%mem=12000MB
%nproc=4
%chk=rhf
# HF/6-31G(d) iop(6/33=2,6/42=6,6/50=1) Pop=MK SCF=Tight Test

PNA parameters

0 1
6           0       -0.000000    1.205317   -0.024240
6           0       -0.000000   -1.205317   -0.024240
6           0       -0.000000    1.207054    1.350298
6           0       -0.000000   -1.207054    1.350298
6           0        0.000000    0.000000    2.063290
6           0        0.000000   -0.000000   -0.710407
1           0       -0.000000    2.127106   -0.570359
1           0       -0.000000   -2.127106   -0.570359
1           0       -0.000000    2.140389    1.883969
1           0       -0.000000   -2.140389    1.883969
7           0        0.000000   -0.000000   -2.153144
7           0        0.000000    0.000000    3.422806
1           0       -0.000000    0.848501    3.936990
1           0       -0.000000   -0.848501    3.936990
8           0       -0.000000    1.057387   -2.713677
8           0       -0.000000   -1.057387   -2.713677

ANTECHAMBER.ESP

